2
Lattice="5.8813459194305535 0.19660221161540234 0.019428519951673745 -0.008109532896696537 5.874398870456681 -0.14663042625662723 -0.0015577012445290223 0.03240485350973149 5.790149135053445" Properties=species:S:1:pos:R:3:dft_force:R:3 dft_energy=-8.423396469899755 volume=200.08340994764666 dft_virial="-1.9324683171527025e-06 3.525732322950768e-05 8.41637845793724e-06 3.5257323229507705e-05 5.2246949467016256e-06 -3.752333336095934e-06 8.416378457937244e-06 -3.7523333360959327e-06 4.58866497310044e-05" id=2255 pbc="T T T"
Si       0.09386321      -0.02612535       0.12239578       0.02922035      -0.02629153      -0.01423315
Si       3.20508999       2.87303328       2.87303725      -0.02922035       0.02629153       0.01423315
2
Lattice="5.86765016713685 -0.23981784813341545 0.14971045307263225 -0.2920483853344333 5.833150949060457 -0.13738303256850976 -0.1328047174973339 -0.12352039856074126 5.57270974494129" Properties=species:S:1:pos:R:3:dft_force:R:3 dft_energy=-8.418901060265975 volume=190.36364451150607 dft_virial="-0.00016302096044971024 -0.00017258851578245507 -2.0766092984168072e-05 -0.0001725885157824551 -0.0003074158657980661 -3.612834878221062e-05 -2.0766092984168075e-05 -3.612834878221062e-05 -0.00029901294294193024" id=2264 pbc="T T T"
Si       0.09386264      -0.02612554       0.12239335       0.09739564       0.08274114       0.00536991
Si       3.20509008       2.87303206       2.87303497      -0.09739564      -0.08274113      -0.00536991
2
Lattice="5.809922265461206 0.2386125619138679 0.15935973481567386 0.022344405156493802 5.8467569015687175 -0.043784538567831675 -0.05598485609281185 0.07054895643804142 5.845403347437432" Properties=species:S:1:pos:R:3:dft_force:R:3 dft_energy=-8.422205037798413 volume=198.60347374211972 dft_virial="-2.5456261257446884e-05 5.183106766739372e-05 6.110823699940111e-05 5.1831067667393734e-05 -4.453227522083458e-05 -4.8413230751419226e-05 6.110823699940114e-05 -4.841323075141924e-05 -5.650889991432472e-05" id=2234 pbc="T T T"
Si       0.09386636      -0.02612904       0.12239527       0.04307456      -0.03901948      -0.04229688
Si       3.20508791       2.87303130       2.87303444      -0.04307457       0.03901948       0.04229688
2
Lattice="5.887201746053759 0.020420286016399843 -0.23731426337446623 -0.050292623060214106 5.997743770152229 0.063058630100601 0.0579595065094783 -0.10624251921972037 5.846000009564021" Properties=species:S:1:pos:R:3:dft_force:R:3 dft_energy=-8.423637760199417 volume=206.54858548355548 dft_virial="0.00013630940792117938 2.6792675540354576e-05 3.373685167019852e-05 2.6792675540354582e-05 6.911118059088857e-05 1.3306345466195283e-06 3.3736851670198534e-05 1.3306345466195292e-06 0.00017495684131223321" id=2261 pbc="T T T"
Si       0.09386685      -0.02612902       0.12239391       0.01341036      -0.00662380      -0.00379600
Si       3.20509122       2.87303444       2.87303703      -0.01341036       0.00662379       0.00379600
2
Lattice="5.846620255472646 0.12240691523632803 0.06198382946995885 0.02397004205520312 5.879530157186445 -0.23241393897165416 -0.20681283650376406 0.011325582199152152 5.898790283643153" Properties=species:S:1:pos:R:3:dft_force:R:3 dft_energy=-8.423087964525317 volume=202.85251062363875 dft_virial="7.676676637125513e-05 6.228170035459898e-07 4.6069891854315573e-05 6.228170035459895e-07 3.8026190300489896e-05 -3.399616419616885e-06 4.6069891854315573e-05 -3.399616419616884e-06 7.1410376455646465e-06" id=2257 pbc="T T T"
Si       0.09386289      -0.02612911       0.12239342       0.03038540      -0.02132968      -0.01565945
Si       3.20509346       2.87303476       2.87303672      -0.03038541       0.02132969       0.01565946
2
Lattice="5.6371540923118175 -0.0038109350864878057 0.006504550704529378 0.10567244553970453 5.815560830271864 0.19958414274827807 0.022363170136911335 -0.009845983335353912 5.982670426410935" Properties=species:S:1:pos:R:3:dft_force:R:3 dft_energy=-8.422524269201432 volume=196.14377325399724 dft_virial="-4.5487872203927355e-05 1.554174120043726e-05 5.6925275939584395e-05 1.5541741200437268e-05 -0.0001706222242500187 2.6533012883571297e-05 5.692527593958442e-05 2.6533012883571297e-05 -6.338727581639458e-05" id=2242 pbc="T T T"
Si       0.09386604      -0.02612798       0.12239798       0.02897899       0.00789469      -0.06774919
Si       3.20509165       2.87303045       2.87303548      -0.02897899      -0.00789469       0.06774920
2
Lattice="6.07859628820944 0.13327079954871163 0.014411580549711018 -0.01312654788770425 6.00653224385098 0.0431759333721347 -0.04669483018332284 0.24677897556691564 5.8109828175568685" Properties=species:S:1:pos:R:3:dft_force:R:3 dft_energy=-8.422604323271162 volume=212.11557291214172 dft_virial="0.00011575715479827116 2.384734612650646e-05 5.42434538969339e-06 2.3847346126506468e-05 0.00018266105871029203 -4.093334218068934e-05 5.42434538969339e-06 -4.0933342180689324e-05 0.0001898918946942025" id=2260 pbc="T T T"
Si       0.09386684      -0.02612597       0.12239295       0.01646906      -0.02213347      -0.00432369
Si       3.20508959       2.87302930       2.87303767      -0.01646905       0.02213345       0.00432370
2
Lattice="5.813588617601899 -0.1409054442702897 -0.17870047698885877 -0.047628997395770346 5.691485834888068 0.05805081807582022 0.04287110165097132 0.10639161861095335 5.827339833357359" Properties=species:S:1:pos:R:3:dft_force:R:3 dft_energy=-8.42356127438926 volume=192.78391543248483 dft_virial="-0.0001345295390924162 -4.851948982257316e-05 3.2598441631794904e-05 -4.851948982257319e-05 -5.293698684581737e-05 3.041889420867257e-05 3.259844163179492e-05 3.041889420867257e-05 -0.0001491622189059989" id=2238 pbc="T T T"
Si       0.09386332      -0.02612518       0.12239805       0.03738913       0.01905974      -0.01636975
Si       3.20508883       2.87303206       2.87303364      -0.03738913      -0.01905974       0.01636975
2
Lattice="5.903721221609184 0.032222797294885044 -0.0566521561819397 -0.11124061805222059 5.727321297204445 0.06150463271927625 -0.17948280470719255 0.02427124550220722 5.905469577322426" Properties=species:S:1:pos:R:3:dft_force:R:3 dft_energy=-8.423187361377613 volume=199.63265537574344 dft_virial="-1.4405940282833632e-05 5.422492959865652e-06 8.114878393825386e-06 5.4224929598656505e-06 2.1128322893913814e-05 2.3645854086105187e-06 8.114878393825386e-06 2.3645854086105195e-06 -3.494735968151874e-05" id=2241 pbc="T T T"
Si       0.09386309      -0.02612667       0.12239578       0.03920690       0.00482621      -0.02170855
Si       3.20509008       2.87303132       2.87303459      -0.03920688      -0.00482621       0.02170854
2
Lattice="5.573986935239879 0.12984066317359716 -0.09511212683198082 0.06307102670397856 6.1135821863519695 0.1700481013656022 0.1022622268779436 0.044838098676833034 5.702009247244578" Properties=species:S:1:pos:R:3:dft_force:R:3 dft_energy=-8.422708008917388 volume=194.2797818967946 dft_virial="-9.710979710404855e-05 5.7929259521295866e-05 2.4787845112899217e-06 5.7929259521295866e-05 -9.262420737250618e-05 -1.8429363543242045e-05 2.478784511289922e-06 -1.8429363543242045e-05 -0.0001350525186757734" id=2267 pbc="T T T"
Si       0.09386226      -0.02612486       0.12239497       0.03687313      -0.06498210      -0.00950866
Si       3.20508900       2.87303408       2.87303555      -0.03687311       0.06498210       0.00950866
2
Lattice="5.794279925183788 -0.04426808168860092 0.11754419638339601 -0.07650085673742399 5.844771933247411 -0.09861615149856816 0.0490542288389631 0.04799318541450822 5.78069570452596" Properties=species:S:1:pos:R:3:dft_force:R:3 dft_energy=-8.42328489337914 volume=195.74438371848157 dft_virial="-2.0262184623690658e-05 -7.188700358459042e-06 1.0445779687960472e-05 -7.188700358459042e-06 -0.00013954760601477686 -1.1970033312395384e-05 1.0445779687960472e-05 -1.1970033312395384e-05 -1.2958094809927723e-05" id=2248 pbc="T T T"
Si       0.09386457      -0.02612820       0.12239304       0.03511815      -0.00068795      -0.02757153
Si       3.20508927       2.87303385       2.87303644      -0.03511815       0.00068795       0.02757153
2
Lattice="5.881108116295031 0.08119028770472782 0.1858193398619815 0.045715328441145564 5.537476859594272 -0.09270410552315395 -0.10311343511352004 0.13848468620738286 5.872460332706257" Properties=species:S:1:pos:R:3:dft_force:R:3 dft_energy=-8.423089130732267 volume=191.40723897535807 dft_virial="-0.0001971384050271471 -7.368986443084465e-06 6.867531983025583e-05 -7.368986443084468e-06 -0.00010266376067503972 2.0438835510557888e-05 6.867531983025586e-05 2.0438835510557888e-05 -0.00014172288258791074" id=2258 pbc="T T T"
Si       0.09386657      -0.02612601       0.12239303       0.04886555      -0.00026642      -0.05380760
Si       3.20509293       2.87303255       2.87303759      -0.04886556       0.00026641       0.05380761
2
Lattice="5.7243899162454035 -0.07451392310094747 -0.043263370999921134 -0.251026664155327 5.782880076747937 0.10486362386110346 -0.08873405549697265 -0.016453278449279192 5.605899080457137" Properties=species:S:1:pos:R:3:dft_force:R:3 dft_energy=-8.41971796779568 volume=185.45799111199676 dft_virial="-0.00021600963353397615 -7.70406216377592e-05 -2.5020771483349333e-05 -7.70406216377592e-05 -0.0004304709816633133 2.23981288656158e-05 -2.5020771483349333e-05 2.23981288656158e-05 -0.00033950413100122123" id=2249 pbc="T T T"
Si       0.09386498      -0.02612703       0.12239304       0.08677706       0.04493947      -0.01288922
Si       3.20508940       2.87303385       2.87303844      -0.08677707      -0.04493947       0.01288922
2
Lattice="6.032468961678604 0.15218809189189034 -0.014853568592999739 0.12315711761054321 5.832244674205609 -0.08682388253567844 0.0915242361199826 -0.10490865603465328 5.847247568956977" Properties=species:S:1:pos:R:3:dft_force:R:3 dft_energy=-8.423909525270224 volume=205.5651150925606 dft_virial="6.231631447824961e-05 2.3714598371411062e-05 -1.7038329372052882e-07 2.3714598371411062e-05 0.0001601629976862884 2.037914973650726e-05 -1.7038329372052882e-07 2.0379149736507254e-05 9.510443955620525e-05" id=2244 pbc="T T T"
Si       0.09386644      -0.02612764       0.12239414       0.00249692      -0.00530950      -0.01265399
Si       3.20508938       2.87303342       2.87303825      -0.00249692       0.00530949       0.01265399
2
Lattice="5.69918422007183 -0.008674239754518457 -0.14651243175740555 0.11360691420821574 5.94468895331291 0.12037134004940364 0.045717029194657734 -0.22993136796721078 5.9069220586163365" Properties=species:S:1:pos:R:3:dft_force:R:3 dft_energy=-8.42430609493722 volume=200.33295139438525 dft_virial="8.889350906971037e-05 -9.823133977594463e-06 -2.1890833494117546e-06 -9.823133977594468e-06 -2.479993411003429e-05 -1.8467903080618988e-05 -2.189083349411754e-06 -1.846790308061898e-05 -5.400959946422809e-06" id=2239 pbc="T T T"
Si       0.09386708      -0.02612592       0.12239484       0.01362410       0.00134233      -0.02585954
Si       3.20508995       2.87302975       2.87303300      -0.01362410      -0.00134233       0.02585954
2
Lattice="5.856756727507878 0.08904425404032996 0.24325149939912172 0.03571646626230943 5.624061521699834 -0.0547951412165312 -0.20015196765420562 -0.06560197469721234 5.732677347959473" Properties=species:S:1:pos:R:3:dft_force:R:3 dft_energy=-8.422068526081627 volume=189.0622260022972 dft_virial="-0.0002455620370883081 1.5027254330057618e-06 7.223724368784035e-05 1.5027254330057616e-06 -0.00017373058740646272 -2.5319762871657747e-05 7.223724368784035e-05 -2.5319762871657747e-05 -0.000203129499138599" id=2274 pbc="T T T"
Si       0.09386442      -0.02612877       0.12239709       0.06031693       0.00018636      -0.04575429
Si       3.20508940       2.87303117       2.87303532      -0.06031693      -0.00018636       0.04575427
2
Lattice="5.849259862718045 0.33129419859340004 -0.15322303819856414 -0.10127442923807924 5.740746384025318 -0.08833643822309015 -0.015995567884633584 -0.039970164179797055 5.802857486549771" Properties=species:S:1:pos:R:3:dft_force:R:3 dft_energy=-8.423156104268745 volume=195.01465340994804 dft_virial="-9.361659522915749e-05 1.4440504130512982e-05 6.225417039470065e-06 1.4440504130512975e-05 -3.3162371792294365e-05 1.6167804937268752e-05 6.225417039470065e-06 1.616780493726876e-05 -0.00011316336608441234" id=2271 pbc="T T T"
Si       0.09386659      -0.02612660       0.12239522       0.04430082      -0.02584873      -0.00083299
Si       3.20508946       2.87303139       2.87303531      -0.04430081       0.02584874       0.00083301
2
Lattice="5.9890203597239475 0.08723559716645064 0.13271028788288636 -0.12875221872033518 5.676503065719928 0.03899542454745383 0.034537900770164075 -0.11541555218483382 6.100969417203029" Properties=species:S:1:pos:R:3:dft_force:R:3 dft_energy=-8.422169531680257 volume=207.48433131608974 dft_virial="3.181459510060532e-05 -1.5103916618219338e-05 6.0362711046850863e-05 -1.5103916618219343e-05 9.973581252560023e-05 1.2720474504536905e-05 6.0362711046850904e-05 1.272047450453691e-05 9.245866002205581e-05" id=2230 pbc="T T T"
Si       0.09386202      -0.02612900       0.12239754       0.03712524       0.00292264      -0.05678566
Si       3.20509246       2.87303100       2.87303676      -0.03712523      -0.00292264       0.05678566
2
Lattice="5.99905875497331 -0.016767067472273304 0.05672768853514099 0.11009546291795862 5.879024145222054 -0.057051663181946835 -0.10995484839702521 0.037016767911403174 5.806620101339251" Properties=species:S:1:pos:R:3:dft_force:R:3 dft_energy=-8.423748286961075 volume=204.85161158251427 dft_virial="4.958191305903271e-05 1.4560928398581024e-05 2.063574375326862e-05 1.4560928398581024e-05 9.978968143244891e-05 -4.463904152548949e-06 2.063574375326862e-05 -4.463904152548949e-06 0.00016226073184868412" id=2236 pbc="T T T"
Si       0.09386258      -0.02612934       0.12239724       0.01284172      -0.00656132      -0.01116691
Si       3.20509055       2.87302947       2.87303296      -0.01284172       0.00656132       0.01116692
2
Lattice="5.8664147964773985 0.007975286752803123 0.10040717722770472 0.0985043553010353 5.784526784092936 -0.03498850596458109 -0.09748972355020122 0.16773662616448248 6.010822696941592" Properties=species:S:1:pos:R:3:dft_force:R:3 dft_energy=-8.423012364954994 volume=204.0618792395246 dft_virial="6.106816489297477e-05 -8.723739978680183e-06 3.902999728276318e-05 -8.723739978680183e-06 0.00010603441466661392 -4.02994268627813e-06 3.902999728276318e-05 -4.02994268627813e-06 2.6545872080729917e-05" id=2233 pbc="T T T"
Si       0.09386665      -0.02612715       0.12239295       0.02277115      -0.00526650      -0.04022081
Si       3.20508802       2.87302930       2.87303459      -0.02277114       0.00526650       0.04022081
2
Lattice="5.584702702818615 -0.019687299047179998 -0.017915945367000786 -0.07770807047761867 5.694584910143409 0.1659949978762436 -0.0348778813972455 -0.16257013383701685 5.736448995639829" Properties=species:S:1:pos:R:3:dft_force:R:3 dft_energy=-8.419018049331424 volume=182.57204594861395 dft_virial="-0.0002634325153150644 -8.536429211993067e-05 4.58814881832064e-05 -8.53642921199307e-05 -0.0005046422033859899 3.602754176489612e-05 4.58814881832064e-05 3.602754176489611e-05 -0.0004194775264937786" id=2268 pbc="T T T"
Si       0.09386321      -0.02612820       0.12239828       0.07738996       0.04775281      -0.05357084
Si       3.20508814       2.87303281       2.87303714      -0.07738996      -0.04775281       0.05357084
2
Lattice="5.737307895060733 0.042347099493873844 -0.01103745565693046 0.2282011158302422 5.530948895183059 0.06705986060783863 -0.028662175330865167 -0.10495314018762697 5.962807968649263" Properties=species:S:1:pos:R:3:dft_force:R:3 dft_energy=-8.422670554967997 volume=189.19752556868585 dft_virial="-0.00022838409987757525 3.617406678555852e-05 2.372379385229621e-05 3.6174066785558545e-05 -0.00012929999878428635 1.9101387653348423e-05 2.372379385229622e-05 1.9101387653348416e-05 -0.00021810067180633605" id=2235 pbc="T T T"
Si       0.09386612      -0.02612611       0.12239282       0.02149421       0.01381476      -0.06493658
Si       3.20508861       2.87303315       2.87303755      -0.02149421      -0.01381476       0.06493659
2
Lattice="5.865708152290356 -0.07081648496550469 0.08506683408226264 -0.0018432010674374836 5.879470744197087 -0.16885974709213128 0.03979481649269302 -0.27334079589930427 5.949250827766802" Properties=species:S:1:pos:R:3:dft_force:R:3 dft_energy=-8.423239190965253 volume=204.88245672533947 dft_virial="6.223729274993665e-05 8.338105218583045e-06 1.4859184603370982e-06 8.338105218583048e-06 8.257143268243108e-05 -1.3313963027741005e-05 1.4859184603370984e-06 -1.3313963027741002e-05 6.856142263236388e-05" id=2278 pbc="T T T"
Si       0.09386563      -0.02612605       0.12239282       0.02236402       0.00356134      -0.01704575
Si       3.20509089       2.87303192       2.87303614      -0.02236403      -0.00356133       0.01704575
2
Lattice="5.846142589400125 0.07229627280191539 0.04849889502271933 -0.01869069528357486 5.8088591811325365 0.09120415430899348 0.14524580502785264 0.10380959132057092 5.943955323836808" Properties=species:S:1:pos:R:3:dft_force:R:3 dft_energy=-8.422982733151997 volume=201.76589555261467 dft_virial="2.174746769463596e-05 3.933811845430679e-06 3.552919360779932e-05 3.933811845430677e-06 2.276426430360198e-05 -1.5490733849587837e-05 3.5529193607799306e-05 -1.5490733849587837e-05 2.847377583481121e-05" id=2277 pbc="T T T"
Si       0.09386307      -0.02612596       0.12239851       0.02434009      -0.00426631      -0.04134394
Si       3.20508940       2.87303049       2.87303570      -0.02434010       0.00426631       0.04134394
2
Lattice="5.746501091403595 -0.1491386219473205 0.0951193077912544 0.08603994855013868 5.684399021770019 -0.06583686765450332 -0.014427114098455441 0.04419013048596011 6.020773163234376" Properties=species:S:1:pos:R:3:dft_force:R:3 dft_energy=-8.42287068781451 volume=196.77299193027366 dft_virial="-6.608971667243053e-05 -1.9915365657250547e-05 6.914523825945422e-05 -1.9915365657250547e-05 -3.736060927199287e-05 3.405931840914679e-05 6.914523825945419e-05 3.405931840914677e-05 -9.158340457097359e-05" id=2265 pbc="T T T"
Si       0.09386364      -0.02612501       0.12239696       0.03432083       0.01358248      -0.06212407
Si       3.20509095       2.87303198       2.87303858      -0.03432083      -0.01358246       0.06212406
2
Lattice="5.895957357415205 0.06060975291295971 0.24922647325448594 0.04937272328000753 5.937087681154693 -0.00454851409019049 -0.038208467000114675 -0.06362324247211669 5.919875110748539" Properties=species:S:1:pos:R:3:dft_force:R:3 dft_energy=-8.422161352212873 volume=207.26048043724995 dft_virial="0.00010667730888369521 7.619385172263468e-06 1.4604652721020296e-05 7.6193851722634716e-06 1.7832436379227476e-05 -1.365796199261146e-05 1.4604652721020303e-05 -1.365796199261146e-05 0.00014754469373408469" id=2262 pbc="T T T"
Si       0.09386357      -0.02612945       0.12239675       0.03007236      -0.01777164      -0.03712590
Si       3.20508934       2.87303274       2.87303606      -0.03007236       0.01777164       0.03712589
2
Lattice="5.997724759507415 0.18167182565543655 0.025974984781647323 -0.02071973201810804 5.778029300964113 0.06276967207888448 0.08352164282467864 -0.0283072658673992 5.530485515440039" Properties=species:S:1:pos:R:3:dft_force:R:3 dft_energy=-8.424649998878358 volume=191.67904531361842 dft_virial="-0.00011094130560319547 3.333188388850942e-05 9.549861530139075e-06 3.333188388850942e-05 -0.00017745681409154105 3.623593904616087e-06 9.549861530139078e-06 3.6235939046160875e-06 -2.1944674838440627e-05" id=2247 pbc="T T T"
Si       0.09386364      -0.02612535       0.12239750       0.02264021      -0.01490643      -0.00629384
Si       3.20508991       2.87302981       2.87303408      -0.02264021       0.01490643       0.00629384
2
Lattice="5.825884441885218 -0.18347235670698 0.00034880564808342465 -0.1083952763236328 5.828770148163827 0.05946580720341751 -0.03744348696760492 -0.15631464903571315 5.83031821180512" Properties=species:S:1:pos:R:3:dft_force:R:3 dft_energy=-8.42245152386713 volume=197.92313133915118 dft_virial="-8.084121104753344e-06 -5.6619013832433044e-05 2.884997311063388e-05 -5.661901383243299e-05 -5.684454418300623e-05 3.0777195512428885e-05 2.8849973110633866e-05 3.07771955124289e-05 -8.997081728283769e-05" id=2245 pbc="T T T"
Si       0.09386249      -0.02612624       0.12239703       0.04575375       0.03477087      -0.03004832
Si       3.20509048       2.87303419       2.87303566      -0.04575374      -0.03477087       0.03004831
2
Lattice="5.856641492008798 0.13528466178246404 -0.13231624219137939 -0.08858626001676567 5.675404945868907 0.007440116314309106 0.025451322775252274 -0.02238369256262477 5.8966238449220985" Properties=species:S:1:pos:R:3:dft_force:R:3 dft_energy=-8.424123356945664 volume=196.08729044734613 dft_virial="-7.089127224274488e-05 6.117978606349628e-06 8.050279352991002e-06 6.117978606349625e-06 7.362859855652816e-07 -7.543897501411168e-06 8.050279352991002e-06 -7.543897501411171e-06 -6.395643927602107e-05" id=2263 pbc="T T T"
Si       0.09386358      -0.02612510       0.12239569       0.03354480      -0.00058980      -0.02061145
Si       3.20508791       2.87303001       2.87303661      -0.03354480       0.00058980       0.02061145
2
Lattice="5.872222000447419 -0.0022040442709347742 0.020635695897345933 -0.10169169966365785 5.811134184619451 -0.1748403901258694 0.06124084584953974 0.06072918360403606 5.893407247599067" Properties=species:S:1:pos:R:3:dft_force:R:3 dft_energy=-8.42358632476511 volume=201.16180237165696 dft_virial="6.53906338423798e-05 4.039344434273161e-06 1.6296938001819698e-05 4.039344434273161e-06 6.186731683072016e-05 -1.4305624447791151e-06 1.6296938001819695e-05 -1.430562444779115e-06 -8.467166558943374e-06" id=2266 pbc="T T T"
Si       0.09386185      -0.02612652       0.12239732       0.02232578      -0.00292934      -0.01773941
Si       3.20509169       2.87303054       2.87303582      -0.02232578       0.00292936       0.01773941
2
Lattice="5.948018197210231 0.06679953193691017 -0.05105352128429467 -0.10509050437962603 5.799559347544461 0.10339345473066709 -0.18429841268783767 0.15137454589797772 5.972513394155467" Properties=species:S:1:pos:R:3:dft_force:R:3 dft_energy=-8.422919091552934 volume=205.92093694659627 dft_virial="4.2242841398821865e-05 1.7914559028809963e-05 1.4573895373639502e-05 1.7914559028809956e-05 0.0001136796878348303 9.646603899675933e-08 1.4573895373639502e-05 9.646603899675943e-08 7.454940968594348e-05" id=2273 pbc="T T T"
Si       0.09386196      -0.02612713       0.12239354       0.02900310      -0.00304434      -0.02213663
Si       3.20509365       2.87303075       2.87303852      -0.02900310       0.00304434       0.02213664
2
Lattice="5.850547389818537 0.0495506220973798 -0.03356100685003878 0.13427343153865431 5.899274525962588 -0.046908463721711785 0.2307788534423217 -0.042769925714258854 5.6244595925079865" Properties=species:S:1:pos:R:3:dft_force:R:3 dft_energy=-8.424591208909304 volume=194.11870305079626 dft_virial="-0.00010835674412605815 4.184097050397324e-05 6.658363492137449e-05 4.184097050397324e-05 -8.493640526799442e-05 -4.180932732187076e-05 6.658363492137449e-05 -4.180932732187076e-05 1.0866223352462706e-05" id=2250 pbc="T T T"
Si       0.09386377      -0.02612665       0.12239662       0.00379200      -0.01067001      -0.00315781
Si       3.20509224       2.87303478       2.87303444      -0.00379200       0.01067001       0.00315781
2
Lattice="5.891809956592226 0.12452204789309916 -0.31265416686722636 -0.03137901568297839 5.812984661132468 0.03349129485330134 0.053914131999969424 0.1747966240688231 5.705408127549591" Properties=species:S:1:pos:R:3:dft_force:R:3 dft_energy=-8.423438663613426 volume=195.49225586548624 dft_virial="-0.00012433779960857865 5.6232152606868155e-05 -5.3492030488682334e-05 5.6232152606868196e-05 -5.6562633963303896e-05 5.491071906881558e-05 -5.349203048868235e-05 5.491071906881555e-05 -1.538622636136034e-05" id=2270 pbc="T T T"
Si       0.09386702      -0.02612828       0.12239499       0.03213988      -0.02941298       0.01636491
Si       3.20509137       2.87303037       2.87303720      -0.03213988       0.02941298      -0.01636492
2
Lattice="5.67925295738196 -0.22838220828476508 0.07342733057928764 -0.15285340776858736 5.856843862779484 -0.12927261150053465 0.22024141931796723 -0.008634801170297517 5.8782290996469015" Properties=species:S:1:pos:R:3:dft_force:R:3 dft_energy=-8.422793093966112 volume=195.2249240146056 dft_virial="-1.9125583053826855e-05 -6.158480623299417e-05 5.1378045712382517e-05 -6.158480623299418e-05 -0.00013952195291475663 3.0346947051848538e-05 5.137804571238253e-05 3.0346947051848538e-05 -0.00013517996556880243" id=2272 pbc="T T T"
Si       0.09386383      -0.02612554       0.12239794       0.03675488       0.03099378      -0.03971285
Si       3.20509156       2.87303298       2.87303674      -0.03675488      -0.03099378       0.03971286
2
Lattice="5.910323263284483 -0.016937294001579593 -0.18477751495221403 0.017981254301867852 5.732663760828635 -0.05867132854610234 0.07092529539576063 0.03989710736781902 5.896515317950761" Properties=species:S:1:pos:R:3:dft_force:R:3 dft_energy=-8.42428632179076 volume=199.8758162431422 dft_virial="1.502899290205937e-05 -3.103184668537393e-06 -1.6153383059842522e-05 -3.103184668537392e-06 9.829895289756874e-05 4.550886371226304e-06 -1.6153383059842516e-05 4.550886371226304e-06 7.4528420841816655e-06" id=2231 pbc="T T T"
Si       0.09386328      -0.02612754       0.12239527       0.01294234       0.00159215      -0.00709355
Si       3.20508829       2.87303068       2.87303769      -0.01294234      -0.00159214       0.00709354
2
Lattice="5.797612570588132 -0.22476551814662757 -0.06659827610463753 -0.28424013147378585 5.759580112679265 -0.03191707740244308 -0.263358884563806 0.08119571121870549 5.91275796752619" Properties=species:S:1:pos:R:3:dft_force:R:3 dft_energy=-8.421025005640882 volume=196.97361774202048 dft_virial="3.468566428316139e-05 -0.000104069887775344 3.614711645682259e-05 -0.000104069887775344 -0.00015257805641548364 -1.2096148959154177e-05 3.614711645682259e-05 -1.2096148959154177e-05 -0.00028889992238274707" id=2259 pbc="T T T"
Si       0.09386629      -0.02612924       0.12239276       0.06523997       0.05145138      -0.01864095
Si       3.20508984       2.87303122       2.87303682      -0.06523997      -0.05145137       0.01864095
2
Lattice="5.879672000029359 0.0075389300933657874 -0.01522900048217914 0.1980268761407577 5.946547650134569 0.12188829879868573 0.0515290519662955 0.1033299788301409 5.709658386165532" Properties=species:S:1:pos:R:3:dft_force:R:3 dft_energy=-8.42435312989004 volume=199.552892170993 dft_virial="-3.3151337844888625e-06 5.9958840221069476e-05 -5.50635163049409e-07 5.9958840221069476e-05 -7.274776139283691e-06 1.8868381172202054e-05 -5.506351630494087e-07 1.8868381172202054e-05 5.368007459506274e-05" id=2275 pbc="T T T"
Si       0.09386215      -0.02612792       0.12239372       0.01090992      -0.01748114      -0.01104498
Si       3.20509110       2.87303009       2.87303474      -0.01090992       0.01748114       0.01104498
2
Lattice="5.711346043875651 -0.07476548344265765 0.11880866882516686 -0.07347888230796744 5.740964458420099 0.14204041378073992 0.08169200999081595 0.08026373608856256 5.879907214240092" Properties=species:S:1:pos:R:3:dft_force:R:3 dft_energy=-8.420869425207636 volume=192.639425315812 dft_virial="-0.00015473478923436415 -7.760808500369144e-05 0.00011369616013652062 -7.760808500369144e-05 -0.00020822591825573567 3.52950408160402e-05 0.00011369616013652062 3.52950408160402e-05 -0.000160075336291975" id=2246 pbc="T T T"
Si       0.09386746      -0.02612930       0.12239664       0.05614249       0.02834208      -0.08001467
Si       3.20509252       2.87303066       2.87303759      -0.05614248      -0.02834208       0.08001467
2
Lattice="5.769985813995473 -0.21128887959707512 0.13743819367408758 0.05166567916510595 5.609942773110395 -0.13562736361516492 0.10624714904872572 -0.13688703615257922 5.838997704998265" Properties=species:S:1:pos:R:3:dft_force:R:3 dft_energy=-8.421985338331597 volume=188.8809825701608 dft_virial="-0.0002411440561554077 -5.9631441185238074e-05 9.786242560890472e-05 -5.963144118523809e-05 -0.00014140236617973744 6.375700823952628e-06 9.786242560890475e-05 6.375700823952627e-06 -0.00028261024308668233" id=2276 pbc="T T T"
Si       0.09386444      -0.02612544       0.12239352       0.04180608       0.03833547      -0.03698417
Si       3.20509091       2.87303081       2.87303498      -0.04180608      -0.03833548       0.03698417
2
Lattice="5.8182378729917925 0.2088982437685948 0.1064974432739324 -0.023274018128980955 5.789089603409891 -0.034066111745890006 -0.04850743658480263 -0.09025696688354731 5.81044515267989" Properties=species:S:1:pos:R:3:dft_force:R:3 dft_energy=-8.422808757588676 volume=195.74999430246376 dft_virial="-4.425267353878498e-05 1.2482575154077073e-05 3.08361908665292e-05 1.248257515407707e-05 -6.553699051916488e-05 -2.1459217430217893e-05 3.0836190866529187e-05 -2.1459217430217886e-05 -9.460183133102362e-05" id=2269 pbc="T T T"
Si       0.09386689      -0.02612970       0.12239431       0.04212497      -0.02266026      -0.03720138
Si       3.20509176       2.87303398       2.87303389      -0.04212497       0.02266026       0.03720138
2
Lattice="6.060112801395431 -0.07709147174041453 0.21520100951753665 -0.1046096257726925 5.895552313517652 0.13927704837143842 0.07024327434012195 -0.0002148807576311963 5.914019756556864" Properties=species:S:1:pos:R:3:dft_force:R:3 dft_energy=-8.421959800143556 volume=211.1570135589744 dft_virial="7.105666845001003e-05 -3.267463807112964e-05 7.023143510847166e-06 -3.267463807112965e-05 0.00010110678106166872 -2.926853858183643e-05 7.023143510847166e-06 -2.926853858183642e-05 0.0002190989874541954" id=2253 pbc="T T T"
Si       0.09386321      -0.02612465       0.12239505       0.02895380       0.00979727      -0.02962489
Si       3.20509080       2.87303234       2.87303468      -0.02895380      -0.00979727       0.02962489
2
Lattice="5.890399861855292 -0.14988451574597153 -0.03428709631890374 -0.09357135753352844 6.000973066434818 0.00870523126296232 0.10308705453682027 -0.17051628101297825 5.896087899695893" Properties=species:S:1:pos:R:3:dft_force:R:3 dft_energy=-8.423044721782318 volume=208.36226778987464 dft_virial="0.00015175246656690483 -1.730557392672471e-05 1.6570109615768115e-05 -1.730557392672471e-05 0.00010365024467493958 1.858586006226083e-05 1.657010961576812e-05 1.8585860062260837e-05 0.00013289132594401846" id=2254 pbc="T T T"
Si       0.09386682      -0.02612898       0.12239561       0.01465409       0.00821486      -0.01593739
Si       3.20509025       2.87303398       2.87303589      -0.01465410      -0.00821486       0.01593739
2
Lattice="6.039801533679161 -0.009927014791577864 -0.05512153471277657 -0.02184852212413075 5.668524207384749 -0.325747209910741 -0.03892027013947747 0.0998159953068768 5.743513132044382" Properties=species:S:1:pos:R:3:dft_force:R:3 dft_energy=-8.424471344198242 volume=196.82225808951668 dft_virial="-5.4521480938032714e-05 -2.0818264471929207e-06 1.1322419822641267e-05 -2.08182644719292e-06 1.8720585990161133e-05 -4.2687814111627145e-05 1.132241982264126e-05 -4.268781411162713e-05 -1.0196202475381901e-05" id=2237 pbc="T T T"
Si       0.09386721      -0.02612888       0.12239849       0.02494280       0.00406310       0.01180220
Si       3.20508978       2.87302986       2.87303638      -0.02494279      -0.00406310      -0.01180220
2
Lattice="5.935553147952452 -0.004474758079546346 0.1788856890463333 0.1371891655653844 5.648330990859484 0.01537297871561438 0.10462007595816167 -0.0007828946361712103 5.851661647930662" Properties=species:S:1:pos:R:3:dft_force:R:3 dft_energy=-8.423706670418099 volume=196.08055438348845 dft_virial="-0.00010850708148466591 2.631700385364462e-05 5.385461113706517e-05 2.631700385364462e-05 -3.7905886048668034e-05 1.2482250880949203e-05 5.385461113706517e-05 1.2482250880949203e-05 -2.9541128743842658e-05" id=2240 pbc="T T T"
Si       0.09386442      -0.02613009       0.12239662       0.01639840       0.00819205      -0.04258951
Si       3.20509093       2.87303194       2.87303606      -0.01639840      -0.00819205       0.04258951
2
Lattice="5.5883719084457555 0.03795632084330586 -0.03794770369217757 0.14868988758176685 5.767009986677979 0.04968020061774539 0.07997982363559879 0.12414455620244393 5.847391150347926" Properties=species:S:1:pos:R:3:dft_force:R:3 dft_energy=-8.422846161006436 volume=188.4003576504585 dft_virial="-0.0001316098592702024 5.410028837137985e-05 3.1350139190308635e-05 5.410028837137985e-05 -0.0002572615656442598 3.2355386989142836e-05 3.1350139190308635e-05 3.2355386989142836e-05 -0.00022281476555749795" id=2251 pbc="T T T"
Si       0.09386341      -0.02612860       0.12239641       0.03270761      -0.01397155      -0.03958744
Si       3.20509122       2.87303457       2.87303408      -0.03270761       0.01397154       0.03958744
2
Lattice="5.9144427339553385 0.2085288212084917 0.013557178676983968 -0.09298418183208473 5.8435230510461675 -0.09263722811560343 0.006808815507855373 0.0569513565192517 5.887082013006503" Properties=species:S:1:pos:R:3:dft_force:R:3 dft_energy=-8.423037184155502 volume=203.60912615598454 dft_virial="2.4000131997487102e-05 2.9482282827431747e-06 2.6801218156295176e-05 2.9482282827431756e-06 9.68150874501847e-05 -2.3977608524368578e-05 2.6801218156295186e-05 -2.397760852436858e-05 7.22102058529848e-05" id=2256 pbc="T T T"
Si       0.09386279      -0.02612630       0.12239643       0.02730203      -0.02035462      -0.01977613
Si       3.20508798       2.87303105       2.87303625      -0.02730203       0.02035462       0.01977613
2
Lattice="5.7307058722826945 -0.13965877304861282 -0.07786423744455774 0.06328917668780534 5.77012300811212 0.06724766159010394 0.00899133579823066 -0.08442702950824808 5.626438759370091" Properties=species:S:1:pos:R:3:dft_force:R:3 dft_energy=-8.42241979013268 volume=186.13540189898825 dft_virial="-0.00028268259552638035 -3.124021007648225e-05 -1.7750452099361563e-05 -3.124021007648225e-05 -0.00025898245401151203 2.3779200610837474e-06 -1.775045209936157e-05 2.3779200610837486e-06 -0.00018637400354740003" id=2252 pbc="T T T"
Si       0.09386606      -0.02612658       0.12239584       0.04684830       0.03390376      -0.00780312
Si       3.20509123       2.87302911       2.87303438      -0.04684830      -0.03390376       0.00780312
2
Lattice="5.685594745975376 -0.30631961592486834 0.09172798639073974 0.12148028803111778 5.8359643733148 0.007222684426409664 0.021447371062395193 0.057121091719765586 5.898434164754967" Properties=species:S:1:pos:R:3:dft_force:R:3 dft_energy=-8.422800299935611 volume=195.9217750219133 dft_virial="-1.7825103831437696e-05 -6.57333797498884e-05 8.226975277169285e-05 -6.57333797498884e-05 -0.00012821889196950795 4.875034506388397e-05 8.226975277169285e-05 4.875034506388397e-05 -9.213701226170499e-05" id=2243 pbc="T T T"
Si       0.09386289      -0.02612824       0.12239329       0.03150756       0.03090006      -0.05104546
Si       3.20509001       2.87303121       2.87303527      -0.03150756      -0.03090006       0.05104547
2
Lattice="5.7523184809974275 0.06233743502239882 0.005302117971430001 0.21300182184274216 5.857825046377911 -0.18439346591190633 0.1838892869818562 0.16960359998656774 5.873860430791991" Properties=species:S:1:pos:R:3:dft_force:R:3 dft_energy=-8.423990008755815 volume=198.02031341805107 dft_virial="5.250285865909602e-05 1.8100720902730584e-05 -7.376813988995446e-06 1.810072090273059e-05 -2.779338394295296e-05 6.880351249040328e-06 -7.376813988995446e-06 6.880351249040326e-06 -5.8628556004220226e-05" id=2232 pbc="T T T"
Si       0.09386561      -0.02612690       0.12239595       0.01344144      -0.02365567      -0.01870146
Si       3.20508938       2.87303073       2.87303769      -0.01344144       0.02365568       0.01870146
