2
Lattice="5.58 0.0 0.0 0.0 5.58 0.0 0.0 0.0 5.58" Properties=species:S:1:pos:R:3:dft_force:R:3 dft_energy=-8.418834412594299 volume=173.74111200000002 dft_virial="_JSON [[-0.0005072458413470046, 0.0, 0.0], [0.0, -0.0005072458413470046, 2.710505431213761e-20], [0.0, 2.710505431213761e-20, -0.0006302296115142343]]" scaling="_JSON [0.93, 0.93, 0.93]" pbc="T T T"
Si       0.00000000       0.00000000       0.00000000       0.00000000       0.00000000       0.00000000
Si       2.79000000       2.79000000       2.79000000      -0.00000000       0.00000000      -0.00000000
2
Lattice="5.58734693877551 0.0 0.0 0.0 5.58734693877551 0.0 0.0 0.0 5.58734693877551" Properties=species:S:1:pos:R:3:dft_force:R:3 dft_energy=-8.419203611198471 volume=174.4282876535457 dft_virial="_JSON [[-0.00048571792869000433, 0.0, 0.0], [0.0, -0.00048571792869000433, 2.710505431213761e-20], [0.0, 0.0, -0.000607357101948126]]" scaling="_JSON [0.9312244897959183, 0.9312244897959183, 0.9312244897959183]" pbc="T T T"
Si       0.00000000       0.00000000       0.00000000      -0.00000000       0.00000000      -0.00000000
Si       2.79367347       2.79367347       2.79367347       0.00000000      -0.00000000      -0.00000000
2
Lattice="5.59469387755102 0.0 0.0 0.0 5.59469387755102 0.0 0.0 0.0 5.59469387755102" Properties=species:S:1:pos:R:3:dft_force:R:3 dft_energy=-8.419558684053916 volume=175.11727285352185 dft_virial="_JSON [[-0.0004644789696414442, 0.0, 0.0], [0.0, -0.00046447896964144406, -2.710505431213761e-20], [0.0, -2.710505431213761e-20, -0.0005847643869779303]]" scaling="_JSON [0.9324489795918367, 0.9324489795918367, 0.9324489795918367]" pbc="T T T"
Si       0.00000000       0.00000000       0.00000000      -0.00000000      -0.00000000      -0.00000000
Si       2.79734694       2.79734694       2.79734694       0.00000000       0.00000000       0.00000000
2
Lattice="5.6020408163265305 0.0 0.0 0.0 5.6020408163265305 0.0 0.0 0.0 5.6020408163265305" Properties=species:S:1:pos:R:3:dft_force:R:3 dft_energy=-8.419899849419782 volume=175.80806997934533 dft_virial="_JSON [[-0.0004434667761390212, 0.0, 0.0], [0.0, -0.0004434667761390213, -2.710505431213761e-20], [0.0, -2.710505431213761e-20, -0.0005624293191950855]]" scaling="_JSON [0.9336734693877551, 0.9336734693877551, 0.9336734693877551]" pbc="T T T"
Si       0.00000000       0.00000000       0.00000000       0.00000000      -0.00000000       0.00000000
Si       2.80102041       2.80102041       2.80102041      -0.00000000      -0.00000000      -0.00000000
2
Lattice="5.609387755102041 0.0 0.0 0.0 5.609387755102041 0.0 0.0 0.0 5.609387755102041" Properties=species:S:1:pos:R:3:dft_force:R:3 dft_energy=-8.420227230959693 volume=176.50068141043275 dft_virial="_JSON [[-0.0004227878318674753, 0.0, -1.3552527156068805e-20], [0.0, -0.0004227878318674754, 9.486769009248164e-20], [-1.3552527156068805e-20, 9.486769009248164e-20, -0.0005404624543983522]]" scaling="_JSON [0.9348979591836735, 0.9348979591836735, 0.9348979591836735]" pbc="T T T"
Si       0.00000000       0.00000000       0.00000000       0.00000000       0.00000000       0.00000000
Si       2.80469388       2.80469388       2.80469388      -0.00000000      -0.00000000       0.00000000
2
Lattice="5.616734693877551 0.0 0.0 0.0 5.616734693877551 0.0 0.0 0.0 5.616734693877551" Properties=species:S:1:pos:R:3:dft_force:R:3 dft_energy=-8.420541048546772 volume=177.1951095262008 dft_virial="_JSON [[-0.0004027226476304547, 0.0, 0.0], [0.0, -0.0004027226476304547, -2.710505431213761e-20], [0.0, -2.710505431213761e-20, -0.0005190435808430368]]" scaling="_JSON [0.9361224489795918, 0.9361224489795918, 0.9361224489795918]" pbc="T T T"
Si       0.00000000       0.00000000       0.00000000      -0.00000000      -0.00000000      -0.00000000
Si       2.80836735       2.80836735       2.80836735       0.00000000      -0.00000000       0.00000000
2
Lattice="5.624081632653061 0.0 0.0 0.0 5.624081632653061 0.0 0.0 0.0 5.624081632653061" Properties=species:S:1:pos:R:3:dft_force:R:3 dft_energy=-8.420841402473254 volume=177.89135670606632 dft_virial="_JSON [[-0.00038266470915119144, 0.0, 0.0], [0.0, -0.00038266470915119166, -1.3552527156068805e-20], [0.0, -1.3552527156068805e-20, -0.0004977106571049608]]" scaling="_JSON [0.9373469387755102, 0.9373469387755102, 0.9373469387755102]" pbc="T T T"
Si       0.00000000       0.00000000       0.00000000      -0.00000000      -0.00000000      -0.00000000
Si       2.81204082       2.81204082       2.81204082       0.00000000       0.00000000      -0.00000000
2
Lattice="5.631428571428572 0.0 0.0 0.0 5.631428571428572 0.0 0.0 0.0 5.631428571428572" Properties=species:S:1:pos:R:3:dft_force:R:3 dft_energy=-8.42112847162341 volume=178.5894253294461 dft_virial="_JSON [[-0.00036321946605851363, 0.0, 0.0], [0.0, -0.00036321946605851363, 1.3552527156068805e-20], [0.0, -1.3552527156068805e-20, -0.00047689919943801274]]" scaling="_JSON [0.9385714285714286, 0.9385714285714286, 0.9385714285714286]" pbc="T T T"
Si       0.00000000       0.00000000       0.00000000      -0.00000000       0.00000000       0.00000000
Si       2.81571429       2.81571429       2.81571429       0.00000000       0.00000000       0.00000000
2
Lattice="5.638775510204082 0.0 0.0 0.0 5.638775510204082 0.0 0.0 0.0 5.638775510204082" Properties=species:S:1:pos:R:3:dft_force:R:3 dft_energy=-8.421402458678065 volume=179.28931777575679 dft_virial="_JSON [[-0.00034404209165652365, 0.0, 0.0], [0.0, -0.00034404209165652365, -2.710505431213761e-20], [0.0, -2.710505431213761e-20, -0.00045637544582562134]]" scaling="_JSON [0.939795918367347, 0.939795918367347, 0.939795918367347]" pbc="T T T"
Si       0.00000000       0.00000000       0.00000000      -0.00000000       0.00000000      -0.00000000
Si       2.81938776       2.81938776       2.81938776       0.00000000      -0.00000000      -0.00000000
2
Lattice="5.646122448979591 0.0 0.0 0.0 5.646122448979591 0.0 0.0 0.0 5.646122448979591" Properties=species:S:1:pos:R:3:dft_force:R:3 dft_energy=-8.421663485317332 volume=179.99103642441494 dft_virial="_JSON [[-0.0003252163519767891, 0.0, 0.0], [0.0, -0.0003252163519767887, -1.3552527156068805e-20], [0.0, 1.3552527156068805e-20, -0.0004362566561840162]]" scaling="_JSON [0.9410204081632653, 0.9410204081632653, 0.9410204081632653]" pbc="T T T"
Si       0.00000000       0.00000000       0.00000000      -0.00000000      -0.00000000      -0.00000000
Si       2.82306122       2.82306122       2.82306122       0.00000000      -0.00000000      -0.00000000
2
Lattice="5.653469387755102 0.0 0.0 0.0 5.653469387755102 0.0 0.0 0.0 5.653469387755102" Properties=species:S:1:pos:R:3:dft_force:R:3 dft_energy=-8.421911726582364 volume=180.6945836548377 dft_virial="_JSON [[-0.00030665866626683203, 0.0, 0.0], [0.0, -0.0003066586662668319, 0.0], [0.0, 0.0, -0.00041633473163902614]]" scaling="_JSON [0.9422448979591836, 0.9422448979591836, 0.9422448979591836]" pbc="T T T"
Si       0.00000000       0.00000000       0.00000000      -0.00000000      -0.00000000       0.00000000
Si       2.82673469       2.82673469       2.82673469       0.00000000      -0.00000000       0.00000000
2
Lattice="5.660816326530612 0.0 0.0 0.0 5.660816326530612 0.0 0.0 0.0 5.660816326530612" Properties=species:S:1:pos:R:3:dft_force:R:3 dft_energy=-8.422147325919195 volume=181.3999618464415 dft_virial="_JSON [[-0.0002881964736962551, 0.0, 0.0], [0.0, -0.0002881964736962551, 1.3552527156068805e-20], [0.0, 1.3552527156068805e-20, -0.0003966485002944915]]" scaling="_JSON [0.943469387755102, 0.943469387755102, 0.943469387755102]" pbc="T T T"
Si       0.00000000       0.00000000       0.00000000      -0.00000000      -0.00000000       0.00000000
Si       2.83040816       2.83040816       2.83040816       0.00000000       0.00000000       0.00000000
2
Lattice="5.668163265306123 0.0 0.0 0.0 5.668163265306123 0.0 0.0 0.0 5.668163265306123" Properties=species:S:1:pos:R:3:dft_force:R:3 dft_energy=-8.422370442055104 volume=182.1071733786433 dft_virial="_JSON [[-0.00027041275902296854, 0.0, 0.0], [0.0, -0.00027041275902296843, 1.3552527156068805e-20], [0.0, 0.0, -0.0003774519626473042]]" scaling="_JSON [0.9446938775510204, 0.9446938775510204, 0.9446938775510204]" pbc="T T T"
Si       0.00000000       0.00000000       0.00000000      -0.00000000       0.00000000      -0.00000000
Si       2.83408163       2.83408163       2.83408163       0.00000000      -0.00000000       0.00000000
2
Lattice="5.6755102040816325 0.0 0.0 0.0 5.6755102040816325 0.0 0.0 0.0 5.6755102040816325" Properties=species:S:1:pos:R:3:dft_force:R:3 dft_energy=-8.422581204415602 volume=182.8162206308596 dft_virial="_JSON [[-0.00025259815597804985, 0.0, 1.3552527156068805e-20], [0.0, -0.00025259815597805007, 1.3552527156068805e-20], [1.3552527156068805e-20, 1.3552527156068805e-20, -0.0003583541763979638]]" scaling="_JSON [0.9459183673469388, 0.9459183673469388, 0.9459183673469388]" pbc="T T T"
Si       0.00000000       0.00000000       0.00000000      -0.00000000      -0.00000000      -0.00000000
Si       2.83775510       2.83775510       2.83775510       0.00000000       0.00000000       0.00000000
2
Lattice="5.682857142857143 0.0 0.0 0.0 5.682857142857143 0.0 0.0 0.0 5.682857142857143" Properties=species:S:1:pos:R:3:dft_force:R:3 dft_energy=-8.422779746995973 volume=183.52710598250732 dft_virial="_JSON [[-0.0002352345313776993, 0.0, 1.3552527156068805e-20], [0.0, -0.00023523453137769943, 1.3552527156068805e-20], [1.3552527156068805e-20, 1.3552527156068805e-20, -0.0003396434747809021]]" scaling="_JSON [0.9471428571428572, 0.9471428571428572, 0.9471428571428572]" pbc="T T T"
Si       0.00000000       0.00000000       0.00000000       0.00000000      -0.00000000       0.00000000
Si       2.84142857       2.84142857       2.84142857      -0.00000000       0.00000000      -0.00000000
2
Lattice="5.690204081632653 0.0 0.0 0.0 5.690204081632653 0.0 0.0 0.0 5.690204081632653" Properties=species:S:1:pos:R:3:dft_force:R:3 dft_energy=-8.422966302093888 volume=184.2398318130031 dft_virial="_JSON [[-0.0002186163690894349, 0.0, 0.0], [0.0, -0.00021861636908943505, 0.0], [0.0, 0.0, -0.00032170176239936643]]" scaling="_JSON [0.9483673469387756, 0.9483673469387756, 0.9483673469387756]" pbc="T T T"
Si       0.00000000       0.00000000       0.00000000      -0.00000000      -0.00000000      -0.00000000
Si       2.84510204       2.84510204       2.84510204       0.00000000      -0.00000000      -0.00000000
2
Lattice="5.697551020408163 0.0 0.0 0.0 5.697551020408163 0.0 0.0 0.0 5.697551020408163" Properties=species:S:1:pos:R:3:dft_force:R:3 dft_energy=-8.423140926914536 volume=184.9544005017637 dft_virial="_JSON [[-0.00020159941716253396, 0.0, 0.0], [0.0, -0.00020159941716253412, 1.3552527156068805e-20], [0.0, 0.0, -0.000303359752938623]]" scaling="_JSON [0.9495918367346938, 0.9495918367346938, 0.9495918367346938]" pbc="T T T"
Si       0.00000000       0.00000000       0.00000000       0.00000000       0.00000000       0.00000000
Si       2.84877551       2.84877551       2.84877551      -0.00000000      -0.00000000       0.00000000
2
Lattice="5.704897959183674 0.0 0.0 0.0 5.704897959183674 0.0 0.0 0.0 5.704897959183674" Properties=species:S:1:pos:R:3:dft_force:R:3 dft_energy=-8.423303816417587 volume=185.67081442820594 dft_virial="_JSON [[-0.00018546706321365767, 0.0, 0.0], [0.0, -0.00018546706321365754, 2.710505431213761e-20], [0.0, 2.710505431213761e-20, -0.0002859548364103081]]" scaling="_JSON [0.9508163265306122, 0.9508163265306122, 0.9508163265306122]" pbc="T T T"
Si       0.00000000       0.00000000       0.00000000      -0.00000000      -0.00000000      -0.00000000
Si       2.85244898       2.85244898       2.85244898       0.00000000      -0.00000000      -0.00000000
2
Lattice="5.7122448979591836 0.0 0.0 0.0 5.7122448979591836 0.0 0.0 0.0 5.7122448979591836" Properties=species:S:1:pos:R:3:dft_force:R:3 dft_energy=-8.42345509937847 volume=186.38907597174645 dft_virial="_JSON [[-0.00016882983356245583, 0.0, 0.0], [0.0, -0.00016882983356245594, -1.3552527156068805e-20], [0.0, -1.3552527156068805e-20, -0.0002679972855066721]]" scaling="_JSON [0.9520408163265306, 0.9520408163265306, 0.9520408163265306]" pbc="T T T"
Si       0.00000000       0.00000000       0.00000000      -0.00000000      -0.00000000       0.00000000
Si       2.85612245       2.85612245       2.85612245       0.00000000       0.00000000       0.00000000
2
Lattice="5.719591836734693 0.0 0.0 0.0 5.719591836734693 0.0 0.0 0.0 5.719591836734693" Properties=species:S:1:pos:R:3:dft_force:R:3 dft_energy=-8.42359495543044 volume=187.109187511802 dft_virial="_JSON [[-0.00015343313803008153, 0.0, 0.0], [0.0, -0.00015343313803008163, 0.0], [0.0, 0.0, -0.0002513112810985921]]" scaling="_JSON [0.953265306122449, 0.953265306122449, 0.953265306122449]" pbc="T T T"
Si       0.00000000       0.00000000       0.00000000       0.00000000      -0.00000000       0.00000000
Si       2.85979592       2.85979592       2.85979592       0.00000000       0.00000000      -0.00000000
2
Lattice="5.726938775510204 0.0 0.0 0.0 5.726938775510204 0.0 0.0 0.0 5.726938775510204" Properties=species:S:1:pos:R:3:dft_force:R:3 dft_energy=-8.423723461170994 volume=187.83115142778945 dft_virial="_JSON [[-0.00013737849935090477, 0.0, 0.0], [0.0, -0.00013737849935090466, 0.0], [0.0, 0.0, -0.0002340124513079221]]" scaling="_JSON [0.9544897959183674, 0.9544897959183674, 0.9544897959183674]" pbc="T T T"
Si       0.00000000       0.00000000       0.00000000       0.00000000      -0.00000000       0.00000000
Si       2.86346939       2.86346939       2.86346939      -0.00000000       0.00000000      -0.00000000
2
Lattice="5.734285714285715 0.0 0.0 0.0 5.734285714285715 0.0 0.0 0.0 5.734285714285715" Properties=species:S:1:pos:R:3:dft_force:R:3 dft_energy=-8.423840825211155 volume=188.55497009912543 dft_virial="_JSON [[-0.00012209431942193866, 0.0, 0.0], [0.0, -0.00012209431942193866, 2.710505431213761e-20], [0.0, 2.710505431213761e-20, -0.00021738670796155065]]" scaling="_JSON [0.9557142857142857, 0.9557142857142857, 0.9557142857142857]" pbc="T T T"
Si       0.00000000       0.00000000       0.00000000       0.00000000       0.00000000      -0.00000000
Si       2.86714286       2.86714286       2.86714286      -0.00000000       0.00000000      -0.00000000
2
Lattice="5.741632653061225 0.0 0.0 0.0 5.741632653061225 0.0 0.0 0.0 5.741632653061225" Properties=species:S:1:pos:R:3:dft_force:R:3 dft_energy=-8.42394713868403 volume=189.2806459052266 dft_virial="_JSON [[-0.00010703339515884617, 0.0, 0.0], [0.0, -0.00010703339515884627, 1.3552527156068805e-20], [0.0, 1.3552527156068805e-20, -0.0002010267051926889]]" scaling="_JSON [0.9569387755102041, 0.9569387755102041, 0.9569387755102041]" pbc="T T T"
Si       0.00000000       0.00000000       0.00000000       0.00000000       0.00000000      -0.00000000
Si       2.87081633       2.87081633       2.87081633      -0.00000000       0.00000000       0.00000000
2
Lattice="5.748979591836735 0.0 0.0 0.0 5.748979591836735 0.0 0.0 0.0 5.748979591836735" Properties=species:S:1:pos:R:3:dft_force:R:3 dft_energy=-8.42404253893686 volume=190.00818122550976 dft_virial="_JSON [[-9.23462832692996e-05, 0.0, 0.0], [0.0, -9.23462832692996e-05, 0.0], [0.0, 0.0, -0.00018501519149765445]]" scaling="_JSON [0.9581632653061225, 0.9581632653061225, 0.9581632653061225]" pbc="T T T"
Si       0.00000000       0.00000000       0.00000000       0.00000000      -0.00000000      -0.00000000
Si       2.87448980       2.87448980       2.87448980      -0.00000000      -0.00000000       0.00000000
2
Lattice="5.756326530612244 0.0 0.0 0.0 5.756326530612244 0.0 0.0 0.0 5.756326530612244" Properties=species:S:1:pos:R:3:dft_force:R:3 dft_energy=-8.42412718797312 volume=190.73757843939168 dft_virial="_JSON [[-7.785888100037675e-05, 0.0, 0.0], [0.0, -7.78588810003767e-05, -1.3552527156068805e-20], [0.0, -1.3552527156068805e-20, -0.000169296832484931]]" scaling="_JSON [0.9593877551020408, 0.9593877551020408, 0.9593877551020408]" pbc="T T T"
Si       0.00000000       0.00000000       0.00000000      -0.00000000       0.00000000       0.00000000
Si       2.87816327       2.87816327       2.87816327       0.00000000      -0.00000000      -0.00000000
2
Lattice="5.763673469387755 0.0 0.0 0.0 5.763673469387755 0.0 0.0 0.0 5.763673469387755" Properties=species:S:1:pos:R:3:dft_force:R:3 dft_energy=-8.424201176115629 volume=191.46883992628923 dft_virial="_JSON [[-6.342628980766928e-05, 0.0, 0.0], [0.0, -6.342628980766929e-05, -1.3552527156068805e-20], [0.0, 0.0, -0.00015362033709264528]]" scaling="_JSON [0.9606122448979592, 0.9606122448979592, 0.9606122448979592]" pbc="T T T"
Si       0.00000000       0.00000000       0.00000000      -0.00000000       0.00000000       0.00000000
Si       2.88183673       2.88183673       2.88183673       0.00000000      -0.00000000      -0.00000000
2
Lattice="5.771020408163265 0.0 0.0 0.0 5.771020408163265 0.0 0.0 0.0 5.771020408163265" Properties=species:S:1:pos:R:3:dft_force:R:3 dft_energy=-8.424264670909675 volume=192.2019680656189 dft_virial="_JSON [[-4.9485486160393563e-05, 0.0, 0.0], [0.0, -4.9485486160393563e-05, -1.3552527156068805e-20], [0.0, -1.3552527156068805e-20, -0.00013835295000710324]]" scaling="_JSON [0.9618367346938775, 0.9618367346938775, 0.9618367346938775]" pbc="T T T"
Si       0.00000000       0.00000000       0.00000000      -0.00000000      -0.00000000      -0.00000000
Si       2.88551020       2.88551020       2.88551020       0.00000000       0.00000000       0.00000000
2
Lattice="5.778367346938776 0.0 0.0 0.0 5.778367346938776 0.0 0.0 0.0 5.778367346938776" Properties=species:S:1:pos:R:3:dft_force:R:3 dft_energy=-8.424317812492324 volume=192.93696523679762 dft_virial="_JSON [[-3.5687751744123506e-05, 0.0, 0.0], [0.0, -3.5687751744123506e-05, 0.0], [0.0, -1.3552527156068805e-20, -0.0001232370134663994]]" scaling="_JSON [0.9630612244897959, 0.9630612244897959, 0.9630612244897959]" pbc="T T T"
Si       0.00000000       0.00000000       0.00000000       0.00000000       0.00000000       0.00000000
Si       2.88918367       2.88918367       2.88918367      -0.00000000      -0.00000000       0.00000000
2
Lattice="5.785714285714286 0.0 0.0 0.0 5.785714285714286 0.0 0.0 0.0 5.785714285714286" Properties=species:S:1:pos:R:3:dft_force:R:3 dft_energy=-8.424360716971602 volume=193.67383381924196 dft_virial="_JSON [[-2.210224325460415e-05, 0.0, -1.3552527156068805e-20], [0.0, -2.210224325460415e-05, 9.486769009248164e-20], [-1.3552527156068805e-20, 9.486769009248164e-20, -0.00010838222326205368]]" scaling="_JSON [0.9642857142857143, 0.9642857142857143, 0.9642857142857143]" pbc="T T T"
Si       0.00000000       0.00000000       0.00000000       0.00000000      -0.00000000       0.00000000
Si       2.89285714       2.89285714       2.89285714      -0.00000000      -0.00000000       0.00000000
2
Lattice="5.793061224489796 0.0 0.0 0.0 5.793061224489796 0.0 0.0 0.0 5.793061224489796" Properties=species:S:1:pos:R:3:dft_force:R:3 dft_energy=-8.42439352779862 volume=194.41257619236887 dft_virial="_JSON [[-8.97705248870161e-06, 0.0, 0.0], [0.0, -8.97705248870161e-06, 0.0], [0.0, 0.0, -9.399801196781929e-05]]" scaling="_JSON [0.9655102040816327, 0.9655102040816327, 0.9655102040816327]" pbc="T T T"
Si       0.00000000       0.00000000       0.00000000       0.00000000       0.00000000       0.00000000
Si       2.89653061       2.89653061       2.89653061      -0.00000000       0.00000000       0.00000000
2
Lattice="5.800408163265306 0.0 0.0 0.0 5.800408163265306 0.0 0.0 0.0 5.800408163265306" Properties=species:S:1:pos:R:3:dft_force:R:3 dft_energy=-8.42441634513953 volume=195.1531947355949 dft_virial="_JSON [[4.163306517378489e-06, 0.0, 0.0], [0.0, 4.163306517378489e-06, 0.0], [0.0, 0.0, -7.954181016817467e-05]]" scaling="_JSON [0.9667346938775511, 0.9667346938775511, 0.9667346938775511]" pbc="T T T"
Si       0.00000000       0.00000000       0.00000000      -0.00000000       0.00000000       0.00000000
Si       2.90020408       2.90020408       2.90020408       0.00000000      -0.00000000      -0.00000000
2
Lattice="5.807755102040816 0.0 0.0 0.0 5.807755102040816 0.0 0.0 0.0 5.807755102040816" Properties=species:S:1:pos:R:3:dft_force:R:3 dft_energy=-8.424429291387584 volume=195.8956918283368 dft_virial="_JSON [[1.6719784515106416e-05, 0.0, 0.0], [0.0, 1.6719784515106416e-05, -1.3552527156068805e-20], [0.0, 1.3552527156068805e-20, -6.565882376146415e-05]]" scaling="_JSON [0.9679591836734693, 0.9679591836734693, 0.9679591836734693]" pbc="T T T"
Si       0.00000000       0.00000000       0.00000000       0.00000000      -0.00000000       0.00000000
Si       2.90387755       2.90387755       2.90387755      -0.00000000       0.00000000       0.00000000
2
Lattice="5.815102040816326 0.0 0.0 0.0 5.815102040816326 0.0 0.0 0.0 5.815102040816326" Properties=species:S:1:pos:R:3:dft_force:R:3 dft_energy=-8.424432532229856 volume=196.6400698500114 dft_virial="_JSON [[2.9499916578457552e-05, 0.0, 0.0], [0.0, 2.9499916578457552e-05, 0.0], [0.0, 0.0, -5.159755886253092e-05]]" scaling="_JSON [0.9691836734693877, 0.9691836734693877, 0.9691836734693877]" pbc="T T T"
Si       0.00000000       0.00000000       0.00000000      -0.00000000      -0.00000000       0.00000000
Si       2.90755102       2.90755102       2.90755102      -0.00000000       0.00000000      -0.00000000
2
Lattice="5.822448979591837 0.0 0.0 0.0 5.822448979591837 0.0 0.0 0.0 5.822448979591837" Properties=species:S:1:pos:R:3:dft_force:R:3 dft_energy=-8.424426194534266 volume=197.38633118003554 dft_virial="_JSON [[4.161828723121645e-05, 0.0, 0.0], [0.0, 4.161828723121645e-05, 0.0], [0.0, 0.0, -3.812387459058515e-05]]" scaling="_JSON [0.9704081632653061, 0.9704081632653061, 0.9704081632653061]" pbc="T T T"
Si       0.00000000       0.00000000       0.00000000      -0.00000000       0.00000000       0.00000000
Si       2.91122449       2.91122449       2.91122449       0.00000000       0.00000000       0.00000000
2
Lattice="5.829795918367347 0.0 0.0 0.0 5.829795918367347 0.0 0.0 0.0 5.829795918367347" Properties=species:S:1:pos:R:3:dft_force:R:3 dft_energy=-8.424410406239843 volume=198.13447819782576 dft_virial="_JSON [[5.382791358482042e-05, 0.0, -1.3552527156068805e-20], [0.0, 5.382791358482042e-05, 9.486769009248164e-20], [1.3552527156068805e-20, 1.3552527156068805e-20, -2.457530928227101e-05]]" scaling="_JSON [0.9716326530612245, 0.9716326530612245, 0.9716326530612245]" pbc="T T T"
Si       0.00000000       0.00000000       0.00000000      -0.00000000      -0.00000000      -0.00000000
Si       2.91489796       2.91489796       2.91489796       0.00000000       0.00000000      -0.00000000
2
Lattice="5.837142857142857 0.0 0.0 0.0 5.837142857142857 0.0 0.0 0.0 5.837142857142857" Properties=species:S:1:pos:R:3:dft_force:R:3 dft_energy=-8.424385288738927 volume=198.88451328279885 dft_virial="_JSON [[6.541489263980796e-05, 0.0, 0.0], [0.0, 6.541489263980794e-05, 2.710505431213761e-20], [0.0, 2.710505431213761e-20, -1.1687864200703412e-05]]" scaling="_JSON [0.9728571428571429, 0.9728571428571429, 0.9728571428571429]" pbc="T T T"
Si       0.00000000       0.00000000       0.00000000      -0.00000000       0.00000000       0.00000000
Si       2.91857143       2.91857143       2.91857143       0.00000000      -0.00000000       0.00000000
2
Lattice="5.844489795918367 0.0 0.0 0.0 5.844489795918367 0.0 0.0 0.0 5.844489795918367" Properties=species:S:1:pos:R:3:dft_force:R:3 dft_energy=-8.42435095245417 volume=199.63643881437153 dft_virial="_JSON [[7.713811332655661e-05, 0.0, 0.0], [0.0, 7.71381133265565e-05, -1.3552527156068805e-20], [0.0, -1.3552527156068805e-20, 1.5221758112909216e-06]]" scaling="_JSON [0.9740816326530612, 0.9740816326530612, 0.9740816326530612]" pbc="T T T"
Si       0.00000000       0.00000000       0.00000000      -0.00000000       0.00000000       0.00000000
Si       2.92224490       2.92224490       2.92224490       0.00000000       0.00000000       0.00000000
2
Lattice="5.851836734693878 0.0 0.0 0.0 5.851836734693878 0.0 0.0 0.0 5.851836734693878" Properties=species:S:1:pos:R:3:dft_force:R:3 dft_energy=-8.424307592221588 volume=200.39025717196068 dft_virial="_JSON [[8.838420318667826e-05, 0.0, 0.0], [0.0, 8.838420318667831e-05, 2.710505431213761e-20], [0.0, 0.0, 1.4267342993243866e-05]]" scaling="_JSON [0.9753061224489796, 0.9753061224489796, 0.9753061224489796]" pbc="T T T"
Si       0.00000000       0.00000000       0.00000000      -0.00000000       0.00000000       0.00000000
Si       2.92591837       2.92591837       2.92591837       0.00000000       0.00000000      -0.00000000
2
Lattice="5.8591836734693885 0.0 0.0 0.0 5.8591836734693885 0.0 0.0 0.0 5.8591836734693885" Properties=species:S:1:pos:R:3:dft_force:R:3 dft_energy=-8.42425527149931 volume=201.14597073498294 dft_virial="_JSON [[9.939899381616315e-05, 0.0, 1.3552527156068805e-20], [0.0, 9.939899381616315e-05, -9.486769009248164e-20], [-1.3552527156068805e-20, -1.3552527156068805e-20, 2.6936757952703945e-05]]" scaling="_JSON [0.976530612244898, 0.976530612244898, 0.976530612244898]" pbc="T T T"
Si       0.00000000       0.00000000       0.00000000       0.00000000      -0.00000000       0.00000000
Si       2.92959184       2.92959184       2.92959184      -0.00000000       0.00000000      -0.00000000
2
Lattice="5.8665306122448975 0.0 0.0 0.0 5.8665306122448975 0.0 0.0 0.0 5.8665306122448975" Properties=species:S:1:pos:R:3:dft_force:R:3 dft_energy=-8.424194169899774 volume=201.90358188285487 dft_virial="_JSON [[0.00011004405664662078, 0.0, 0.0], [0.0, 0.00011004405664662088, 1.3552527156068805e-20], [0.0, -1.3552527156068805e-20, 3.922887367245508e-05]]" scaling="_JSON [0.9777551020408163, 0.9777551020408163, 0.9777551020408163]" pbc="T T T"
Si       0.00000000       0.00000000       0.00000000      -0.00000000      -0.00000000      -0.00000000
Si       2.93326531       2.93326531       2.93326531       0.00000000       0.00000000       0.00000000
2
Lattice="5.873877551020408 0.0 0.0 0.0 5.873877551020408 0.0 0.0 0.0 5.873877551020408" Properties=species:S:1:pos:R:3:dft_force:R:3 dft_energy=-8.424124428194139 volume=202.6630929949936 dft_virial="_JSON [[0.00012046057888763441, 0.0, 0.0], [0.0, 0.00012046057888763452, -1.3552527156068805e-20], [0.0, -1.3552527156068805e-20, 5.152689344573156e-05]]" scaling="_JSON [0.9789795918367347, 0.9789795918367347, 0.9789795918367347]" pbc="T T T"
Si       0.00000000       0.00000000       0.00000000      -0.00000000       0.00000000       0.00000000
Si       2.93693878       2.93693878       2.93693878      -0.00000000      -0.00000000      -0.00000000
2
Lattice="5.881224489795918 0.0 0.0 0.0 5.881224489795918 0.0 0.0 0.0 5.881224489795918" Properties=species:S:1:pos:R:3:dft_force:R:3 dft_energy=-8.424046193080144 volume=203.42450645081553 dft_virial="_JSON [[0.00013051481384531284, 0.0, 1.3552527156068805e-20], [0.0, 0.00013051481384531273, -9.486769009248164e-20], [1.3552527156068805e-20, -9.486769009248164e-20, 6.364739896274151e-05]]" scaling="_JSON [0.980204081632653, 0.980204081632653, 0.980204081632653]" pbc="T T T"
Si       0.00000000       0.00000000       0.00000000      -0.00000000      -0.00000000       0.00000000
Si       2.94061224       2.94061224       2.94061224       0.00000000       0.00000000       0.00000000
2
Lattice="5.888571428571429 0.0 0.0 0.0 5.888571428571429 0.0 0.0 0.0 5.888571428571429" Properties=species:S:1:pos:R:3:dft_force:R:3 dft_energy=-8.42395959793442 volume=204.1878246297376 dft_virial="_JSON [[0.00014028925543547663, 0.0, 0.0], [0.0, 0.00014028925543547663, -1.3552527156068805e-20], [0.0, -1.3552527156068805e-20, 7.571123294680466e-05]]" scaling="_JSON [0.9814285714285714, 0.9814285714285714, 0.9814285714285714]" pbc="T T T"
Si       0.00000000       0.00000000       0.00000000      -0.00000000      -0.00000000      -0.00000000
Si       2.94428571       2.94428571       2.94428571       0.00000000      -0.00000000       0.00000000
2
Lattice="5.895918367346939 0.0 0.0 0.0 5.895918367346939 0.0 0.0 0.0 5.895918367346939" Properties=species:S:1:pos:R:3:dft_force:R:3 dft_energy=-8.423864801547577 volume=204.95304991117646 dft_virial="_JSON [[0.00014975899831159707, 0.0, 0.0], [0.0, 0.00014975899831159696, 0.0], [0.0, 0.0, 8.77273201892774e-05]]" scaling="_JSON [0.9826530612244898, 0.9826530612244898, 0.9826530612244898]" pbc="T T T"
Si       0.00000000       0.00000000       0.00000000      -0.00000000      -0.00000000       0.00000000
Si       2.94795918       2.94795918       2.94795918       0.00000000       0.00000000       0.00000000
2
Lattice="5.903265306122449 0.0 0.0 0.0 5.903265306122449 0.0 0.0 0.0 5.903265306122449" Properties=species:S:1:pos:R:3:dft_force:R:3 dft_energy=-8.423761977505128 volume=205.72018467454893 dft_virial="_JSON [[0.0001588446140494491, 0.0, 0.0], [0.0, 0.0001588446140494492, 0.0], [0.0, 0.0, 9.962666215142235e-05]]" scaling="_JSON [0.9838775510204082, 0.9838775510204082, 0.9838775510204082]" pbc="T T T"
Si       0.00000000       0.00000000       0.00000000      -0.00000000      -0.00000000       0.00000000
Si       2.95163265       2.95163265       2.95163265       0.00000000       0.00000000       0.00000000
2
Lattice="5.910612244897959 0.0 0.0 0.0 5.910612244897959 0.0 0.0 0.0 5.910612244897959" Properties=species:S:1:pos:R:3:dft_force:R:3 dft_energy=-8.42365126834678 volume=206.48923129927155 dft_virial="_JSON [[0.00016762356053235815, 0.0, 0.0], [0.0, 0.00016762356053235804, 2.0328790734103208e-20], [0.0, -6.776263578034403e-21, 0.00011150821958527863]]" scaling="_JSON [0.9851020408163266, 0.9851020408163266, 0.9851020408163266]" pbc="T T T"
Si       0.00000000       0.00000000       0.00000000      -0.00000000      -0.00000000       0.00000000
Si       2.95530612       2.95530612       2.95530612      -0.00000000       0.00000000      -0.00000000
2
Lattice="5.917959183673469 0.0 0.0 0.0 5.917959183673469 0.0 0.0 0.0 5.917959183673469" Properties=species:S:1:pos:R:3:dft_force:R:3 dft_energy=-8.42353285368677 volume=207.26019216476126 dft_virial="_JSON [[0.00017600533113018937, 0.0, 0.0], [0.0, 0.00017600533113018948, 0.0], [0.0, 0.0, 0.00012324737287025547]]" scaling="_JSON [0.9863265306122448, 0.9863265306122448, 0.9863265306122448]" pbc="T T T"
Si       0.00000000       0.00000000       0.00000000      -0.00000000       0.00000000       0.00000000
Si       2.95897959       2.95897959       2.95897959       0.00000000      -0.00000000      -0.00000000
2
Lattice="5.92530612244898 0.0 0.0 0.0 5.92530612244898 0.0 0.0 0.0 5.92530612244898" Properties=species:S:1:pos:R:3:dft_force:R:3 dft_energy=-8.42340689251304 volume=208.03306965043478 dft_virial="_JSON [[0.00018403104882311564, 0.0, 0.0], [0.0, 0.00018403104882311555, 6.776263578034403e-21], [0.0, 6.776263578034403e-21, 0.0001349025237158643]]" scaling="_JSON [0.9875510204081632, 0.9875510204081632, 0.9875510204081632]" pbc="T T T"
Si       0.00000000       0.00000000       0.00000000      -0.00000000       0.00000000      -0.00000000
Si       2.96265306       2.96265306       2.96265306       0.00000000       0.00000000       0.00000000
2
Lattice="5.93265306122449 0.0 0.0 0.0 5.93265306122449 0.0 0.0 0.0 5.93265306122449" Properties=species:S:1:pos:R:3:dft_force:R:3 dft_energy=-8.423273599700702 volume=208.80786613570874 dft_virial="_JSON [[0.000191714556076042, 0.0, 0.0], [0.0, 0.00019171455607604196, 1.3552527156068805e-20], [0.0, 1.3552527156068805e-20, 0.00014643180802678514]]" scaling="_JSON [0.9887755102040816, 0.9887755102040816, 0.9887755102040816]" pbc="T T T"
Si       0.00000000       0.00000000       0.00000000       0.00000000      -0.00000000       0.00000000
Si       2.96632653       2.96632653       2.96632653      -0.00000000       0.00000000       0.00000000
2
Lattice="5.9399999999999995 0.0 0.0 0.0 5.9399999999999995 0.0 0.0 0.0 5.9399999999999995" Properties=species:S:1:pos:R:3:dft_force:R:3 dft_energy=-8.42313316791695 volume=209.58458399999995 dft_virial="_JSON [[0.00019900348527494496, 0.0, 0.0], [0.0, 0.00019900348527494494, -1.3552527156068805e-20], [0.0, -1.3552527156068805e-20, 0.00015770040376676146]]" scaling="_JSON [0.99, 0.99, 0.99]" pbc="T T T"
Si       0.00000000       0.00000000       0.00000000       0.00000000      -0.00000000       0.00000000
Si       2.97000000       2.97000000       2.97000000      -0.00000000       0.00000000      -0.00000000
