2
Lattice="5.58 0.0 0.0 0.0 5.58 0.0 0.0 0.0 5.58" Properties=species:S:1:pos:R:3:dft_force:R:3 dft_energy=-8.418794385443844 volume=173.74111200000002 dft_virial="_JSON [[-0.0005058149382090714, 0.0, 1.3552527156068805e-20], [0.0, -0.0005058149382090715, 1.3552527156068805e-20], [1.3552527156068805e-20, 1.3552527156068805e-20, -0.0006287696843001191]]" scaling="_JSON [0.93, 0.93, 0.93]" pbc="T T T"
Si       0.00000000       0.00000000       0.00000000       0.00000000       0.00000000       0.00000000
Si       2.79000000       2.79000000       2.79000000      -0.00000000       0.00000000      -0.00000000
2
Lattice="5.58734693877551 0.0 0.0 0.0 5.58734693877551 0.0 0.0 0.0 5.58734693877551" Properties=species:S:1:pos:R:3:dft_force:R:3 dft_energy=-8.419163369580575 volume=174.4282876535457 dft_virial="_JSON [[-0.0004840401463792695, 0.0, 0.0], [0.0, -0.0004840401463792693, -2.710505431213761e-20], [0.0, -2.710505431213761e-20, -0.0006056165380208292]]" scaling="_JSON [0.9312244897959183, 0.9312244897959183, 0.9312244897959183]" pbc="T T T"
Si       0.00000000       0.00000000       0.00000000      -0.00000000       0.00000000      -0.00000000
Si       2.79367347       2.79367347       2.79367347       0.00000000      -0.00000000      -0.00000000
2
Lattice="5.59469387755102 0.0 0.0 0.0 5.59469387755102 0.0 0.0 0.0 5.59469387755102" Properties=species:S:1:pos:R:3:dft_force:R:3 dft_energy=-8.419518364668493 volume=175.11727285352185 dft_virial="_JSON [[-0.000462528710057152, 0.0, 0.0], [0.0, -0.0004625287100571519, 0.0], [0.0, 2.710505431213761e-20, -0.0005828463541157254]]" scaling="_JSON [0.9324489795918367, 0.9324489795918367, 0.9324489795918367]" pbc="T T T"
Si       0.00000000       0.00000000       0.00000000      -0.00000000      -0.00000000      -0.00000000
Si       2.79734694       2.79734694       2.79734694       0.00000000       0.00000000      -0.00000000
2
Lattice="5.6020408163265305 0.0 0.0 0.0 5.6020408163265305 0.0 0.0 0.0 5.6020408163265305" Properties=species:S:1:pos:R:3:dft_force:R:3 dft_energy=-8.419859009783249 volume=175.80806997934533 dft_virial="_JSON [[-0.00044199985316294605, 0.0, 1.3552527156068805e-20], [0.0, -0.000441999853162946, -9.486769009248164e-20], [1.3552527156068805e-20, -9.486769009248164e-20, -0.0005609727445491916]]" scaling="_JSON [0.9336734693877551, 0.9336734693877551, 0.9336734693877551]" pbc="T T T"
Si       0.00000000       0.00000000       0.00000000       0.00000000      -0.00000000       0.00000000
Si       2.80102041       2.80102041       2.80102041      -0.00000000       0.00000000       0.00000000
2
Lattice="5.609387755102041 0.0 0.0 0.0 5.609387755102041 0.0 0.0 0.0 5.609387755102041" Properties=species:S:1:pos:R:3:dft_force:R:3 dft_energy=-8.420186355272602 volume=176.50068141043275 dft_virial="_JSON [[-0.00042122545800894284, 0.0, 1.3552527156068805e-20], [0.0, -0.0004212254580089426, 1.3552527156068805e-20], [1.3552527156068805e-20, 1.3552527156068805e-20, -0.0005388411484227735]]" scaling="_JSON [0.9348979591836735, 0.9348979591836735, 0.9348979591836735]" pbc="T T T"
Si       0.00000000       0.00000000       0.00000000       0.00000000       0.00000000       0.00000000
Si       2.80469388       2.80469388       2.80469388      -0.00000000      -0.00000000       0.00000000
2
Lattice="5.616734693877551 0.0 0.0 0.0 5.616734693877551 0.0 0.0 0.0 5.616734693877551" Properties=species:S:1:pos:R:3:dft_force:R:3 dft_energy=-8.420500485641579 volume=177.1951095262008 dft_virial="_JSON [[-0.0004013334968506132, 0.0, 0.0], [0.0, -0.0004013334968506134, -2.710505431213761e-20], [0.0, -2.710505431213761e-20, -0.0005176597631791273]]" scaling="_JSON [0.9361224489795918, 0.9361224489795918, 0.9361224489795918]" pbc="T T T"
Si       0.00000000       0.00000000       0.00000000      -0.00000000      -0.00000000       0.00000000
Si       2.80836735       2.80836735       2.80836735       0.00000000       0.00000000       0.00000000
2
Lattice="5.624081632653061 0.0 0.0 0.0 5.624081632653061 0.0 0.0 0.0 5.624081632653061" Properties=species:S:1:pos:R:3:dft_force:R:3 dft_energy=-8.420801042310849 volume=177.89135670606632 dft_virial="_JSON [[-0.00038141405702383374, 0.0, 0.0], [0.0, -0.00038141405702383396, 1.3552527156068805e-20], [0.0, 1.3552527156068805e-20, -0.0004964192764801385]]" scaling="_JSON [0.9373469387755102, 0.9373469387755102, 0.9373469387755102]" pbc="T T T"
Si       0.00000000       0.00000000       0.00000000      -0.00000000      -0.00000000      -0.00000000
Si       2.81204082       2.81204082       2.81204082       0.00000000       0.00000000      -0.00000000
2
Lattice="5.631428571428572 0.0 0.0 0.0 5.631428571428572 0.0 0.0 0.0 5.631428571428572" Properties=species:S:1:pos:R:3:dft_force:R:3 dft_energy=-8.4210882475905 volume=178.5894253294461 dft_virial="_JSON [[-0.0003619414132780929, 0.0, 1.3552527156068805e-20], [0.0, -0.00036194141327809296, -9.486769009248164e-20], [-1.3552527156068805e-20, -1.3552527156068805e-20, -0.0004756381616002127]]" scaling="_JSON [0.9385714285714286, 0.9385714285714286, 0.9385714285714286]" pbc="T T T"
Si       0.00000000       0.00000000       0.00000000      -0.00000000       0.00000000       0.00000000
Si       2.81571429       2.81571429       2.81571429       0.00000000       0.00000000       0.00000000
2
Lattice="5.638775510204082 0.0 0.0 0.0 5.638775510204082 0.0 0.0 0.0 5.638775510204082" Properties=species:S:1:pos:R:3:dft_force:R:3 dft_energy=-8.421361896108877 volume=179.28931777575679 dft_virial="_JSON [[-0.0003426223987132521, 0.0, 0.0], [0.0, -0.00034262239871325176, 2.710505431213761e-20], [0.0, 2.710505431213761e-20, -0.0004549824290975674]]" scaling="_JSON [0.939795918367347, 0.939795918367347, 0.939795918367347]" pbc="T T T"
Si       0.00000000       0.00000000       0.00000000      -0.00000000      -0.00000000      -0.00000000
Si       2.81938776       2.81938776       2.81938776       0.00000000      -0.00000000      -0.00000000
2
Lattice="5.646122448979591 0.0 0.0 0.0 5.646122448979591 0.0 0.0 0.0 5.646122448979591" Properties=species:S:1:pos:R:3:dft_force:R:3 dft_energy=-8.421622903580142 volume=179.99103642441494 dft_virial="_JSON [[-0.00032362543771818556, 0.0, 0.0], [0.0, -0.00032362543771818545, 2.710505431213761e-20], [0.0, 0.0, -0.00043464884779692873]]" scaling="_JSON [0.9410204081632653, 0.9410204081632653, 0.9410204081632653]" pbc="T T T"
Si       0.00000000       0.00000000       0.00000000      -0.00000000      -0.00000000      -0.00000000
Si       2.82306122       2.82306122       2.82306122       0.00000000      -0.00000000       0.00000000
2
Lattice="5.653469387755102 0.0 0.0 0.0 5.653469387755102 0.0 0.0 0.0 5.653469387755102" Properties=species:S:1:pos:R:3:dft_force:R:3 dft_energy=-8.421870845496965 volume=180.6945836548377 dft_virial="_JSON [[-0.0003050658620009222, 0.0, 0.0], [0.0, -0.00030506586200092207, 0.0], [0.0, 0.0, -0.0004147963803006263]]" scaling="_JSON [0.9422448979591836, 0.9422448979591836, 0.9422448979591836]" pbc="T T T"
Si       0.00000000       0.00000000       0.00000000      -0.00000000       0.00000000       0.00000000
Si       2.82673469       2.82673469       2.82673469       0.00000000      -0.00000000       0.00000000
2
Lattice="5.660816326530612 0.0 0.0 0.0 5.660816326530612 0.0 0.0 0.0 5.660816326530612" Properties=species:S:1:pos:R:3:dft_force:R:3 dft_energy=-8.422106101720953 volume=181.3999618464415 dft_virial="_JSON [[-0.0002867545452197168, 0.0, 0.0], [0.0, -0.00028675454521971693, 1.3552527156068805e-20], [0.0, 1.3552527156068805e-20, -0.00039521094387092766]]" scaling="_JSON [0.943469387755102, 0.943469387755102, 0.943469387755102]" pbc="T T T"
Si       0.00000000       0.00000000       0.00000000      -0.00000000      -0.00000000      -0.00000000
Si       2.83040816       2.83040816       2.83040816       0.00000000       0.00000000       0.00000000
2
Lattice="5.668163265306123 0.0 0.0 0.0 5.668163265306123 0.0 0.0 0.0 5.668163265306123" Properties=species:S:1:pos:R:3:dft_force:R:3 dft_energy=-8.422328878924667 volume=182.1071733786433 dft_virial="_JSON [[-0.0002688210384856399, 0.0, 1.3552527156068805e-20], [0.0, -0.00026882103848564, 1.3552527156068805e-20], [0.0, 2.710505431213761e-20, -0.00037594188623422384]]" scaling="_JSON [0.9446938775510204, 0.9446938775510204, 0.9446938775510204]" pbc="T T T"
Si       0.00000000       0.00000000       0.00000000      -0.00000000       0.00000000       0.00000000
Si       2.83408163       2.83408163       2.83408163       0.00000000      -0.00000000       0.00000000
2
Lattice="5.6755102040816325 0.0 0.0 0.0 5.6755102040816325 0.0 0.0 0.0 5.6755102040816325" Properties=species:S:1:pos:R:3:dft_force:R:3 dft_energy=-8.42254012210641 volume=182.8162206308596 dft_virial="_JSON [[-0.0002511366694469119, 0.0, 0.0], [0.0, -0.000251136669446912, 1.3552527156068805e-20], [0.0, 1.3552527156068805e-20, -0.00035689161102717083]]" scaling="_JSON [0.9459183673469388, 0.9459183673469388, 0.9459183673469388]" pbc="T T T"
Si       0.00000000       0.00000000       0.00000000      -0.00000000      -0.00000000      -0.00000000
Si       2.83775510       2.83775510       2.83775510       0.00000000       0.00000000      -0.00000000
2
Lattice="5.682857142857143 0.0 0.0 0.0 5.682857142857143 0.0 0.0 0.0 5.682857142857143" Properties=species:S:1:pos:R:3:dft_force:R:3 dft_energy=-8.422738602643047 volume=183.52710598250732 dft_virial="_JSON [[-0.00023382148969472146, 0.0, 0.0], [0.0, -0.0002338214896947216, 0.0], [0.0, 0.0, -0.0003382220049189476]]" scaling="_JSON [0.9471428571428572, 0.9471428571428572, 0.9471428571428572]" pbc="T T T"
Si       0.00000000       0.00000000       0.00000000       0.00000000      -0.00000000      -0.00000000
Si       2.84142857       2.84142857       2.84142857      -0.00000000       0.00000000       0.00000000
2
Lattice="5.690204081632653 0.0 0.0 0.0 5.690204081632653 0.0 0.0 0.0 5.690204081632653" Properties=species:S:1:pos:R:3:dft_force:R:3 dft_energy=-8.422925092648315 volume=184.2398318130031 dft_virial="_JSON [[-0.00021685976784279262, 0.0, 0.0], [0.0, -0.00021685976784279262, -1.3552527156068805e-20], [0.0, -1.3552527156068805e-20, -0.00031992020055496094]]" scaling="_JSON [0.9483673469387756, 0.9483673469387756, 0.9483673469387756]" pbc="T T T"
Si       0.00000000       0.00000000       0.00000000      -0.00000000      -0.00000000       0.00000000
Si       2.84510204       2.84510204       2.84510204       0.00000000      -0.00000000       0.00000000
2
Lattice="5.697551020408163 0.0 0.0 0.0 5.697551020408163 0.0 0.0 0.0 5.697551020408163" Properties=species:S:1:pos:R:3:dft_force:R:3 dft_energy=-8.423099886171311 volume=184.9544005017637 dft_virial="_JSON [[-0.00020020655836190798, 0.0, 0.0], [0.0, -0.000200206558361908, 2.710505431213761e-20], [1.3552527156068805e-20, 1.3552527156068805e-20, -0.00030200797418972604]]" scaling="_JSON [0.9495918367346938, 0.9495918367346938, 0.9495918367346938]" pbc="T T T"
Si       0.00000000       0.00000000       0.00000000       0.00000000       0.00000000       0.00000000
Si       2.84877551       2.84877551       2.84877551      -0.00000000      -0.00000000       0.00000000
2
Lattice="5.704897959183674 0.0 0.0 0.0 5.704897959183674 0.0 0.0 0.0 5.704897959183674" Properties=species:S:1:pos:R:3:dft_force:R:3 dft_energy=-8.42326310157422 volume=185.67081442820594 dft_virial="_JSON [[-0.00018364451761296215, 0.0, 0.0], [0.0, -0.000183644517612962, 0.0], [0.0, 0.0, -0.000284155327356144]]" scaling="_JSON [0.9508163265306122, 0.9508163265306122, 0.9508163265306122]" pbc="T T T"
Si       0.00000000       0.00000000       0.00000000      -0.00000000      -0.00000000       0.00000000
Si       2.85244898       2.85244898       2.85244898       0.00000000      -0.00000000      -0.00000000
2
Lattice="5.7122448979591836 0.0 0.0 0.0 5.7122448979591836 0.0 0.0 0.0 5.7122448979591836" Properties=species:S:1:pos:R:3:dft_force:R:3 dft_energy=-8.423414272057846 volume=186.38907597174645 dft_virial="_JSON [[-0.0001678381709532585, 0.0, 0.0], [0.0, -0.0001678381709532585, 2.710505431213761e-20], [0.0, 2.710505431213761e-20, -0.00026705629975266106]]" scaling="_JSON [0.9520408163265306, 0.9520408163265306, 0.9520408163265306]" pbc="T T T"
Si       0.00000000       0.00000000       0.00000000      -0.00000000      -0.00000000       0.00000000
Si       2.85612245       2.85612245       2.85612245       0.00000000       0.00000000       0.00000000
2
Lattice="5.719591836734693 0.0 0.0 0.0 5.719591836734693 0.0 0.0 0.0 5.719591836734693" Properties=species:S:1:pos:R:3:dft_force:R:3 dft_energy=-8.42355435523656 volume=187.109187511802 dft_virial="_JSON [[-0.00015200387206184282, 0.0, 0.0], [0.0, -0.00015200387206184282, 2.710505431213761e-20], [0.0, 2.710505431213761e-20, -0.0002499097211713756]]" scaling="_JSON [0.953265306122449, 0.953265306122449, 0.953265306122449]" pbc="T T T"
Si       0.00000000       0.00000000       0.00000000       0.00000000      -0.00000000      -0.00000000
Si       2.85979592       2.85979592       2.85979592       0.00000000       0.00000000       0.00000000
2
Lattice="5.726938775510204 0.0 0.0 0.0 5.726938775510204 0.0 0.0 0.0 5.726938775510204" Properties=species:S:1:pos:R:3:dft_force:R:3 dft_energy=-8.423682604083712 volume=187.83115142778945 dft_virial="_JSON [[-0.00013641236186448427, 0.0, 0.0], [0.0, -0.00013641236186448416, -1.3552527156068805e-20], [0.0, 1.3552527156068805e-20, -0.0002330253516486228]]" scaling="_JSON [0.9544897959183674, 0.9544897959183674, 0.9544897959183674]" pbc="T T T"
Si       0.00000000       0.00000000       0.00000000       0.00000000      -0.00000000      -0.00000000
Si       2.86346939       2.86346939       2.86346939      -0.00000000       0.00000000      -0.00000000
2
Lattice="5.734285714285715 0.0 0.0 0.0 5.734285714285715 0.0 0.0 0.0 5.734285714285715" Properties=species:S:1:pos:R:3:dft_force:R:3 dft_energy=-8.423799373369613 volume=188.55497009912543 dft_virial="_JSON [[-0.00012105263267930735, 0.0, 0.0], [0.0, -0.00012105263267930735, 1.3552527156068805e-20], [0.0, 1.3552527156068805e-20, -0.00021636242811326568]]" scaling="_JSON [0.9557142857142857, 0.9557142857142857, 0.9557142857142857]" pbc="T T T"
Si       0.00000000       0.00000000       0.00000000       0.00000000       0.00000000      -0.00000000
Si       2.86714286       2.86714286       2.86714286      -0.00000000       0.00000000      -0.00000000
2
Lattice="5.741632653061225 0.0 0.0 0.0 5.741632653061225 0.0 0.0 0.0 5.741632653061225" Properties=species:S:1:pos:R:3:dft_force:R:3 dft_energy=-8.423905459268907 volume=189.2806459052266 dft_virial="_JSON [[-0.00010577483920908274, 0.0, 0.0], [0.0, -0.00010577483920908275, 0.0], [0.0, 0.0, -0.00019980729414996454]]" scaling="_JSON [0.9569387755102041, 0.9569387755102041, 0.9569387755102041]" pbc="T T T"
Si       0.00000000       0.00000000       0.00000000       0.00000000       0.00000000      -0.00000000
Si       2.87081633       2.87081633       2.87081633      -0.00000000       0.00000000       0.00000000
2
Lattice="5.748979591836735 0.0 0.0 0.0 5.748979591836735 0.0 0.0 0.0 5.748979591836735" Properties=species:S:1:pos:R:3:dft_force:R:3 dft_energy=-8.424000873804276 volume=190.00818122550976 dft_virial="_JSON [[-9.121635199163346e-05, 0.0, 0.0], [0.0, -9.12163519916334e-05, 2.710505431213761e-20], [0.0, 2.710505431213761e-20, -0.00018396277921039255]]" scaling="_JSON [0.9581632653061225, 0.9581632653061225, 0.9581632653061225]" pbc="T T T"
Si       0.00000000       0.00000000       0.00000000       0.00000000      -0.00000000      -0.00000000
Si       2.87448980       2.87448980       2.87448980      -0.00000000       0.00000000       0.00000000
2
Lattice="5.756326530612244 0.0 0.0 0.0 5.756326530612244 0.0 0.0 0.0 5.756326530612244" Properties=species:S:1:pos:R:3:dft_force:R:3 dft_energy=-8.424084998080325 volume=190.73757843939168 dft_virial="_JSON [[-7.643765158283276e-05, 0.0, 0.0], [0.0, -7.643765158283277e-05, 1.3552527156068805e-20], [0.0, 1.3552527156068805e-20, -0.00016788574603009054]]" scaling="_JSON [0.9593877551020408, 0.9593877551020408, 0.9593877551020408]" pbc="T T T"
Si       0.00000000       0.00000000       0.00000000      -0.00000000       0.00000000      -0.00000000
Si       2.87816327       2.87816327       2.87816327       0.00000000      -0.00000000      -0.00000000
2
Lattice="5.763673469387755 0.0 0.0 0.0 5.763673469387755 0.0 0.0 0.0 5.763673469387755" Properties=species:S:1:pos:R:3:dft_force:R:3 dft_energy=-8.424159081667336 volume=191.46883992628923 dft_virial="_JSON [[-6.212113139338455e-05, 0.0, 0.0], [0.0, -6.21211313933845e-05, -1.3552527156068805e-20], [0.0, 2.710505431213761e-20, -0.00015228495415346846]]" scaling="_JSON [0.9606122448979592, 0.9606122448979592, 0.9606122448979592]" pbc="T T T"
Si       0.00000000       0.00000000       0.00000000      -0.00000000       0.00000000       0.00000000
Si       2.88183673       2.88183673       2.88183673       0.00000000      -0.00000000      -0.00000000
2
Lattice="5.771020408163265 0.0 0.0 0.0 5.771020408163265 0.0 0.0 0.0 5.771020408163265" Properties=species:S:1:pos:R:3:dft_force:R:3 dft_energy=-8.424222671001537 volume=192.2019680656189 dft_virial="_JSON [[-4.834534723177218e-05, 0.0, 0.0], [0.0, -4.834534723177218e-05, 2.710505431213761e-20], [0.0, 2.710505431213761e-20, -0.00013725149178164884]]" scaling="_JSON [0.9618367346938775, 0.9618367346938775, 0.9618367346938775]" pbc="T T T"
Si       0.00000000       0.00000000       0.00000000      -0.00000000      -0.00000000      -0.00000000
Si       2.88551020       2.88551020       2.88551020       0.00000000       0.00000000      -0.00000000
2
Lattice="5.778367346938776 0.0 0.0 0.0 5.778367346938776 0.0 0.0 0.0 5.778367346938776" Properties=species:S:1:pos:R:3:dft_force:R:3 dft_energy=-8.42427578967204 volume=192.93696523679762 dft_virial="_JSON [[-3.446606988905714e-05, 0.0, 0.0], [0.0, -3.446606988905714e-05, 0.0], [0.0, 1.3552527156068805e-20, -0.0001220904507971116]]" scaling="_JSON [0.9630612244897959, 0.9630612244897959, 0.9630612244897959]" pbc="T T T"
Si       0.00000000       0.00000000       0.00000000       0.00000000       0.00000000       0.00000000
Si       2.88918367       2.88918367       2.88918367      -0.00000000      -0.00000000       0.00000000
2
Lattice="5.785714285714286 0.0 0.0 0.0 5.785714285714286 0.0 0.0 0.0 5.785714285714286" Properties=species:S:1:pos:R:3:dft_force:R:3 dft_energy=-8.424318847798851 volume=193.67383381924196 dft_virial="_JSON [[-2.0851773885529126e-05, 0.0, 0.0], [0.0, -2.0851773885529126e-05, 1.3552527156068805e-20], [0.0, 1.3552527156068805e-20, -0.0001071741565977441]]" scaling="_JSON [0.9642857142857143, 0.9642857142857143, 0.9642857142857143]" pbc="T T T"
Si       0.00000000       0.00000000       0.00000000       0.00000000      -0.00000000      -0.00000000
Si       2.89285714       2.89285714       2.89285714      -0.00000000      -0.00000000       0.00000000
2
Lattice="5.793061224489796 0.0 0.0 0.0 5.793061224489796 0.0 0.0 0.0 5.793061224489796" Properties=species:S:1:pos:R:3:dft_force:R:3 dft_energy=-8.42435180309673 volume=194.41257619236887 dft_virial="_JSON [[-7.541172264218963e-06, 0.0, 0.0], [0.0, -7.541172264218963e-06, -1.3552527156068805e-20], [0.0, -1.3552527156068805e-20, -9.25521131258047e-05]]" scaling="_JSON [0.9655102040816327, 0.9655102040816327, 0.9655102040816327]" pbc="T T T"
Si       0.00000000       0.00000000       0.00000000       0.00000000       0.00000000      -0.00000000
Si       2.89653061       2.89653061       2.89653061      -0.00000000       0.00000000      -0.00000000
2
Lattice="5.800408163265306 0.0 0.0 0.0 5.800408163265306 0.0 0.0 0.0 5.800408163265306" Properties=species:S:1:pos:R:3:dft_force:R:3 dft_energy=-8.424374633806037 volume=195.1531947355949 dft_virial="_JSON [[5.38573819142585e-06, 0.0, 0.0], [0.0, 5.38573819142585e-06, 2.710505431213761e-20], [0.0, 2.710505431213761e-20, -7.826447596563196e-05]]" scaling="_JSON [0.9667346938775511, 0.9667346938775511, 0.9667346938775511]" pbc="T T T"
Si       0.00000000       0.00000000       0.00000000      -0.00000000       0.00000000       0.00000000
Si       2.90020408       2.90020408       2.90020408       0.00000000      -0.00000000      -0.00000000
2
Lattice="5.807755102040816 0.0 0.0 0.0 5.807755102040816 0.0 0.0 0.0 5.807755102040816" Properties=species:S:1:pos:R:3:dft_force:R:3 dft_energy=-8.424387666280602 volume=195.8956918283368 dft_virial="_JSON [[1.821727187541135e-05, 0.0, -1.3552527156068805e-20], [0.0, 1.821727187541135e-05, 9.486769009248164e-20], [1.3552527156068805e-20, 1.3552527156068805e-20, -6.417965820981671e-05]]" scaling="_JSON [0.9679591836734693, 0.9679591836734693, 0.9679591836734693]" pbc="T T T"
Si       0.00000000       0.00000000       0.00000000       0.00000000      -0.00000000       0.00000000
Si       2.90387755       2.90387755       2.90387755      -0.00000000       0.00000000      -0.00000000
2
Lattice="5.815102040816326 0.0 0.0 0.0 5.815102040816326 0.0 0.0 0.0 5.815102040816326" Properties=species:S:1:pos:R:3:dft_force:R:3 dft_energy=-8.424390602466621 volume=196.6400698500114 dft_virial="_JSON [[3.078939837563286e-05, 0.0, 0.0], [0.0, 3.078939837563286e-05, -2.710505431213761e-20], [0.0, -2.710505431213761e-20, -5.0348966767598186e-05]]" scaling="_JSON [0.9691836734693877, 0.9691836734693877, 0.9691836734693877]" pbc="T T T"
Si       0.00000000       0.00000000       0.00000000      -0.00000000      -0.00000000       0.00000000
Si       2.90755102       2.90755102       2.90755102      -0.00000000       0.00000000      -0.00000000
2
Lattice="5.822448979591837 0.0 0.0 0.0 5.822448979591837 0.0 0.0 0.0 5.822448979591837" Properties=species:S:1:pos:R:3:dft_force:R:3 dft_energy=-8.424384352635226 volume=197.38633118003554 dft_virial="_JSON [[4.312440614906996e-05, 0.0, 0.0], [0.0, 4.312440614906996e-05, 2.710505431213761e-20], [0.0, 2.710505431213761e-20, -3.670272526797024e-05]]" scaling="_JSON [0.9704081632653061, 0.9704081632653061, 0.9704081632653061]" pbc="T T T"
Si       0.00000000       0.00000000       0.00000000      -0.00000000       0.00000000      -0.00000000
Si       2.91122449       2.91122449       2.91122449       0.00000000      -0.00000000       0.00000000
2
Lattice="5.829795918367347 0.0 0.0 0.0 5.829795918367347 0.0 0.0 0.0 5.829795918367347" Properties=species:S:1:pos:R:3:dft_force:R:3 dft_energy=-8.424368468471707 volume=198.13447819782576 dft_virial="_JSON [[5.5099862102867036e-05, 0.0, 0.0], [0.0, 5.5099862102867036e-05, 2.710505431213761e-20], [0.0, 0.0, -2.328592787437263e-05]]" scaling="_JSON [0.9716326530612245, 0.9716326530612245, 0.9716326530612245]" pbc="T T T"
Si       0.00000000       0.00000000       0.00000000      -0.00000000       0.00000000      -0.00000000
Si       2.91489796       2.91489796       2.91489796       0.00000000       0.00000000       0.00000000
2
Lattice="5.837142857142857 0.0 0.0 0.0 5.837142857142857 0.0 0.0 0.0 5.837142857142857" Properties=species:S:1:pos:R:3:dft_force:R:3 dft_energy=-8.424343171164464 volume=198.88451328279885 dft_virial="_JSON [[6.691985246386136e-05, 0.0, 0.0], [0.0, 6.691985246386137e-05, 0.0], [0.0, 0.0, -1.0138673241928723e-05]]" scaling="_JSON [0.9728571428571429, 0.9728571428571429, 0.9728571428571429]" pbc="T T T"
Si       0.00000000       0.00000000       0.00000000      -0.00000000       0.00000000       0.00000000
Si       2.91857143       2.91857143       2.91857143       0.00000000      -0.00000000       0.00000000
2
Lattice="5.844489795918367 0.0 0.0 0.0 5.844489795918367 0.0 0.0 0.0 5.844489795918367" Properties=species:S:1:pos:R:3:dft_force:R:3 dft_energy=-8.424308831730249 volume=199.63643881437153 dft_virial="_JSON [[7.856788895319413e-05, 0.0, 0.0], [0.0, 7.856788895319409e-05, 0.0], [0.0, 0.0, 2.8879017643769046e-06]]" scaling="_JSON [0.9740816326530612, 0.9740816326530612, 0.9740816326530612]" pbc="T T T"
Si       0.00000000       0.00000000       0.00000000      -0.00000000       0.00000000       0.00000000
Si       2.92224490       2.92224490       2.92224490       0.00000000       0.00000000      -0.00000000
2
Lattice="5.851836734693878 0.0 0.0 0.0 5.851836734693878 0.0 0.0 0.0 5.851836734693878" Properties=species:S:1:pos:R:3:dft_force:R:3 dft_energy=-8.424266080893437 volume=200.39025717196068 dft_virial="_JSON [[8.961392201363265e-05, 0.0, 0.0], [0.0, 8.961392201363266e-05, 1.3552527156068805e-20], [0.0, -1.3552527156068805e-20, 1.5454499020614427e-05]]" scaling="_JSON [0.9753061224489796, 0.9753061224489796, 0.9753061224489796]" pbc="T T T"
Si       0.00000000       0.00000000       0.00000000      -0.00000000       0.00000000       0.00000000
Si       2.92591837       2.92591837       2.92591837       0.00000000       0.00000000       0.00000000
2
Lattice="5.8591836734693885 0.0 0.0 0.0 5.8591836734693885 0.0 0.0 0.0 5.8591836734693885" Properties=species:S:1:pos:R:3:dft_force:R:3 dft_energy=-8.424214025443488 volume=201.14597073498294 dft_virial="_JSON [[0.00010064531406610495, 0.0, 0.0], [0.0, 0.00010064531406610506, 1.3552527156068805e-20], [0.0, -1.3552527156068805e-20, 2.817780389344942e-05]]" scaling="_JSON [0.976530612244898, 0.976530612244898, 0.976530612244898]" pbc="T T T"
Si       0.00000000       0.00000000       0.00000000       0.00000000      -0.00000000      -0.00000000
Si       2.92959184       2.92959184       2.92959184      -0.00000000       0.00000000       0.00000000
2
Lattice="5.8665306122448975 0.0 0.0 0.0 5.8665306122448975 0.0 0.0 0.0 5.8665306122448975" Properties=species:S:1:pos:R:3:dft_force:R:3 dft_energy=-8.424152592968799 volume=201.90358188285487 dft_virial="_JSON [[0.00011140460077492076, 0.0, 0.0], [0.0, 0.00011140460077492081, 1.3552527156068805e-20], [0.0, -1.3552527156068805e-20, 4.069454649825265e-05]]" scaling="_JSON [0.9777551020408163, 0.9777551020408163, 0.9777551020408163]" pbc="T T T"
Si       0.00000000       0.00000000       0.00000000      -0.00000000      -0.00000000      -0.00000000
Si       2.93326531       2.93326531       2.93326531       0.00000000       0.00000000       0.00000000
2
Lattice="5.873877551020408 0.0 0.0 0.0 5.873877551020408 0.0 0.0 0.0 5.873877551020408" Properties=species:S:1:pos:R:3:dft_force:R:3 dft_energy=-8.424083030453298 volume=202.6630929949936 dft_virial="_JSON [[0.00012178363681706532, 0.0, 0.0], [0.0, 0.00012178363681706541, 2.710505431213761e-20], [0.0, 2.710505431213761e-20, 5.2816263680898734e-05]]" scaling="_JSON [0.9789795918367347, 0.9789795918367347, 0.9789795918367347]" pbc="T T T"
Si       0.00000000       0.00000000       0.00000000      -0.00000000       0.00000000       0.00000000
Si       2.93693878       2.93693878       2.93693878      -0.00000000      -0.00000000      -0.00000000
2
Lattice="5.881224489795918 0.0 0.0 0.0 5.881224489795918 0.0 0.0 0.0 5.881224489795918" Properties=species:S:1:pos:R:3:dft_force:R:3 dft_energy=-8.424004868125385 volume=203.42450645081553 dft_virial="_JSON [[0.00013187594976714486, 0.0, 0.0], [0.0, 0.0001318759497671448, -2.710505431213761e-20], [0.0, -2.710505431213761e-20, 6.497215344821194e-05]]" scaling="_JSON [0.980204081632653, 0.980204081632653, 0.980204081632653]" pbc="T T T"
Si       0.00000000       0.00000000       0.00000000      -0.00000000      -0.00000000       0.00000000
Si       2.94061224       2.94061224       2.94061224       0.00000000       0.00000000       0.00000000
2
Lattice="5.888571428571429 0.0 0.0 0.0 5.888571428571429 0.0 0.0 0.0 5.888571428571429" Properties=species:S:1:pos:R:3:dft_force:R:3 dft_energy=-8.423918428662947 volume=204.1878246297376 dft_virial="_JSON [[0.00014167689631477813, 0.0, 0.0], [0.0, 0.00014167689631477807, 1.3552527156068805e-20], [0.0, 1.3552527156068805e-20, 7.704836282258587e-05]]" scaling="_JSON [0.9814285714285714, 0.9814285714285714, 0.9814285714285714]" pbc="T T T"
Si       0.00000000       0.00000000       0.00000000      -0.00000000      -0.00000000       0.00000000
Si       2.94428571       2.94428571       2.94428571       0.00000000      -0.00000000       0.00000000
2
Lattice="5.895918367346939 0.0 0.0 0.0 5.895918367346939 0.0 0.0 0.0 5.895918367346939" Properties=species:S:1:pos:R:3:dft_force:R:3 dft_energy=-8.423823595338323 volume=204.95304991117646 dft_virial="_JSON [[0.00015119716567254474, 0.0, 0.0], [0.0, 0.00015119716567254474, 0.0], [0.0, 0.0, 8.92312272734013e-05]]" scaling="_JSON [0.9826530612244898, 0.9826530612244898, 0.9826530612244898]" pbc="T T T"
Si       0.00000000       0.00000000       0.00000000      -0.00000000      -0.00000000      -0.00000000
Si       2.94795918       2.94795918       2.94795918       0.00000000       0.00000000      -0.00000000
2
Lattice="5.903265306122449 0.0 0.0 0.0 5.903265306122449 0.0 0.0 0.0 5.903265306122449" Properties=species:S:1:pos:R:3:dft_force:R:3 dft_energy=-8.423720908352067 volume=205.72018467454893 dft_virial="_JSON [[0.0001602181072717704, 0.0, 0.0], [0.0, 0.00016021810727177052, 0.0], [0.0, 0.0, 0.00010092791243804862]]" scaling="_JSON [0.9838775510204082, 0.9838775510204082, 0.9838775510204082]" pbc="T T T"
Si       0.00000000       0.00000000       0.00000000      -0.00000000       0.00000000       0.00000000
Si       2.95163265       2.95163265       2.95163265       0.00000000      -0.00000000      -0.00000000
2
Lattice="5.910612244897959 0.0 0.0 0.0 5.910612244897959 0.0 0.0 0.0 5.910612244897959" Properties=species:S:1:pos:R:3:dft_force:R:3 dft_energy=-8.423610162006073 volume=206.48923129927155 dft_virial="_JSON [[0.00016896761329660004, 0.0, 0.0], [0.0, 0.00016896761329660004, 0.0], [0.0, 0.0, 0.00011278185735589434]]" scaling="_JSON [0.9851020408163266, 0.9851020408163266, 0.9851020408163266]" pbc="T T T"
Si       0.00000000       0.00000000       0.00000000      -0.00000000       0.00000000       0.00000000
Si       2.95530612       2.95530612       2.95530612       0.00000000       0.00000000      -0.00000000
2
Lattice="5.917959183673469 0.0 0.0 0.0 5.917959183673469 0.0 0.0 0.0 5.917959183673469" Properties=species:S:1:pos:R:3:dft_force:R:3 dft_energy=-8.42349163917471 volume=207.26019216476126 dft_virial="_JSON [[0.0001773490177418087, 0.0, 0.0], [0.0, 0.0001773490177418087, 8.809142651444724e-20], [0.0, 8.809142651444724e-20, 0.00012449362829409797]]" scaling="_JSON [0.9863265306122448, 0.9863265306122448, 0.9863265306122448]" pbc="T T T"
Si       0.00000000       0.00000000       0.00000000      -0.00000000       0.00000000       0.00000000
Si       2.95897959       2.95897959       2.95897959       0.00000000      -0.00000000      -0.00000000
2
Lattice="5.92530612244898 0.0 0.0 0.0 5.92530612244898 0.0 0.0 0.0 5.92530612244898" Properties=species:S:1:pos:R:3:dft_force:R:3 dft_energy=-8.423365622761569 volume=208.03306965043478 dft_virial="_JSON [[0.00018538164526584136, 0.0, 0.0], [0.0, 0.00018538164526584128, -6.776263578034403e-21], [0.0, -6.776263578034403e-21, 0.00013613296653178613]]" scaling="_JSON [0.9875510204081632, 0.9875510204081632, 0.9875510204081632]" pbc="T T T"
Si       0.00000000       0.00000000       0.00000000      -0.00000000       0.00000000       0.00000000
Si       2.96265306       2.96265306       2.96265306       0.00000000       0.00000000      -0.00000000
2
Lattice="5.93265306122449 0.0 0.0 0.0 5.93265306122449 0.0 0.0 0.0 5.93265306122449" Properties=species:S:1:pos:R:3:dft_force:R:3 dft_energy=-8.423232682717332 volume=208.80786613570874 dft_virial="_JSON [[0.00019299846986722, 0.0, 0.0], [0.0, 0.00019299846986722003, -6.776263578034403e-21], [0.0, -6.776263578034403e-21, 0.00014760684536257253]]" scaling="_JSON [0.9887755102040816, 0.9887755102040816, 0.9887755102040816]" pbc="T T T"
Si       0.00000000       0.00000000       0.00000000       0.00000000      -0.00000000       0.00000000
Si       2.96632653       2.96632653       2.96632653      -0.00000000       0.00000000      -0.00000000
2
Lattice="5.9399999999999995 0.0 0.0 0.0 5.9399999999999995 0.0 0.0 0.0 5.9399999999999995" Properties=species:S:1:pos:R:3:dft_force:R:3 dft_energy=-8.423092367477489 volume=209.58458399999995 dft_virial="_JSON [[0.00020030002667015278, 0.0, 0.0], [0.0, 0.00020030002667015297, 0.0], [0.0, 0.0, 0.00015888372444471986]]" scaling="_JSON [0.99, 0.99, 0.99]" pbc="T T T"
Si       0.00000000       0.00000000       0.00000000       0.00000000      -0.00000000      -0.00000000
Si       2.97000000       2.97000000       2.97000000      -0.00000000       0.00000000       0.00000000
