2
Lattice="5.22 0.0 0.0 0.0 5.22 0.0 0.0 0.0 5.22" Properties=species:S:1:pos:R:3:dft_force:R:3 dft_energy=-8.379887758781267 volume=142.23664799999997 dft_virial="_JSON [[-0.002132419856110714, 9.03501810404587e-21, 9.03501810404587e-21], [9.03501810404587e-21, -0.002132419856110714, 9.03501810404587e-21], [9.03501810404587e-21, 9.03501810404587e-21, -0.002132419856110713]]" scaling="_JSON [0.9, 0.9, 0.9]" pbc="T T T"
Si       0.00000000       0.00000000       0.00000000       0.00000000       0.00000000       0.00000000
Si       2.61000000       2.61000000       2.61000000      -0.00000000      -0.00000000      -0.00000000
2
Lattice="5.281052631578947 0.0 0.0 0.0 5.281052631578947 0.0 0.0 0.0 5.281052631578947" Properties=species:S:1:pos:R:3:dft_force:R:3 dft_energy=-8.389768090129882 volume=147.28600660504446 dft_virial="_JSON [[-0.0017806296365114854, 0.0, 0.0], [0.0, -0.001780629636511483, 0.0], [0.0, 0.0, -0.0017806296365114871]]" scaling="_JSON [0.9105263157894737, 0.9105263157894737, 0.9105263157894737]" pbc="T T T"
Si       0.00000000       0.00000000       0.00000000      -0.00000000      -0.00000000       0.00000000
Si       2.64052632       2.64052632       2.64052632       0.00000000       0.00000000       0.00000000
2
Lattice="5.342105263157895 0.0 0.0 0.0 5.342105263157895 0.0 0.0 0.0 5.342105263157895" Properties=species:S:1:pos:R:3:dft_force:R:3 dft_energy=-8.398113808853497 volume=152.45347353841666 dft_virial="_JSON [[-0.00145719253733592, 0.0, 0.0], [0.0, -0.0014571925373359216, 0.0], [0.0, 0.0, -0.001457192537335919]]" scaling="_JSON [0.9210526315789473, 0.9210526315789473, 0.9210526315789473]" pbc="T T T"
Si       0.00000000       0.00000000       0.00000000       0.00000000       0.00000000       0.00000000
Si       2.67105263       2.67105263       2.67105263      -0.00000000      -0.00000000       0.00000000
2
Lattice="5.403157894736842 0.0 0.0 0.0 5.403157894736842 0.0 0.0 0.0 5.403157894736842" Properties=species:S:1:pos:R:3:dft_force:R:3 dft_energy=-8.405047464884017 volume=157.74041421431696 dft_virial="_JSON [[-0.0011726212206687415, 4.517509052022935e-21, 4.517509052022935e-21], [4.517509052022935e-21, -0.0011726212206687396, 0.0], [4.517509052022935e-21, 0.0, -0.0011726212206687413]]" scaling="_JSON [0.9315789473684211, 0.9315789473684211, 0.9315789473684211]" pbc="T T T"
Si       0.00000000       0.00000000       0.00000000      -0.00000000       0.00000000       0.00000000
Si       2.70157895       2.70157895       2.70157895       0.00000000       0.00000000       0.00000000
2
Lattice="5.46421052631579 0.0 0.0 0.0 5.46421052631579 0.0 0.0 0.0 5.46421052631579" Properties=species:S:1:pos:R:3:dft_force:R:3 dft_energy=-8.4106976041946 volume=163.14819404694563 dft_virial="_JSON [[-0.0009232495323710739, -1.3552527156068805e-20, -1.3552527156068805e-20], [-1.3552527156068805e-20, -0.000923249532371075, -9.03501810404587e-21], [-1.3552527156068805e-20, -9.03501810404587e-21, -0.0009232495323710739]]" scaling="_JSON [0.9421052631578948, 0.9421052631578948, 0.9421052631578948]" pbc="T T T"
Si       0.00000000       0.00000000       0.00000000      -0.00000000       0.00000000      -0.00000000
Si       2.73210526       2.73210526       2.73210526       0.00000000      -0.00000000       0.00000000
2
Lattice="5.525263157894736 0.0 0.0 0.0 5.525263157894736 0.0 0.0 0.0 5.525263157894736" Properties=species:S:1:pos:R:3:dft_force:R:3 dft_energy=-8.41519638778176 volume=168.67817845050294 dft_virial="_JSON [[-0.000711851047140371, 4.517509052022935e-21, 4.517509052022935e-21], [4.517509052022935e-21, -0.0007118510471403701, 9.03501810404587e-21], [4.517509052022935e-21, 9.03501810404587e-21, -0.0007118510471403715]]" scaling="_JSON [0.9526315789473684, 0.9526315789473684, 0.9526315789473684]" pbc="T T T"
Si       0.00000000       0.00000000       0.00000000      -0.00000000       0.00000000       0.00000000
Si       2.76263158       2.76263158       2.76263158       0.00000000      -0.00000000      -0.00000000
2
Lattice="5.586315789473684 0.0 0.0 0.0 5.586315789473684 0.0 0.0 0.0 5.586315789473684" Properties=species:S:1:pos:R:3:dft_force:R:3 dft_energy=-8.418689486626993 volume=174.33173283918933 dft_virial="_JSON [[-0.0005262043618452165, 9.03501810404587e-21, 9.03501810404587e-21], [9.03501810404587e-21, -0.0005262043618452168, 9.03501810404587e-21], [9.03501810404587e-21, 9.03501810404587e-21, -0.0005262043618452164]]" scaling="_JSON [0.9631578947368421, 0.9631578947368421, 0.9631578947368421]" pbc="T T T"
Si       0.00000000       0.00000000       0.00000000       0.00000000       0.00000000       0.00000000
Si       2.79315789       2.79315789       2.79315789      -0.00000000      -0.00000000      -0.00000000
2
Lattice="5.647368421052631 0.0 0.0 0.0 5.647368421052631 0.0 0.0 0.0 5.647368421052631" Properties=species:S:1:pos:R:3:dft_force:R:3 dft_energy=-8.421239025258659 volume=180.11022262720508 dft_virial="_JSON [[-0.0003603652574240516, 0.0, 0.0], [0.0, -0.0003603652574240512, 0.0], [0.0, 0.0, -0.0003603652574240517]]" scaling="_JSON [0.9736842105263158, 0.9736842105263158, 0.9736842105263158]" pbc="T T T"
Si       0.00000000       0.00000000       0.00000000      -0.00000000      -0.00000000      -0.00000000
Si       2.82368421       2.82368421       2.82368421       0.00000000       0.00000000       0.00000000
2
Lattice="5.708421052631579 0.0 0.0 0.0 5.708421052631579 0.0 0.0 0.0 5.708421052631579" Properties=species:S:1:pos:R:3:dft_force:R:3 dft_energy=-8.422931062312577 volume=186.01501322875052 dft_virial="_JSON [[-0.0002163791890474686, 1.3552527156068805e-20, -1.3552527156068805e-20], [-1.3552527156068805e-20, -0.00021637918904746846, 1.807003620809174e-20], [1.3552527156068805e-20, -1.807003620809174e-20, -0.00021637918904746835]]" scaling="_JSON [0.9842105263157894, 0.9842105263157894, 0.9842105263157894]" pbc="T T T"
Si       0.00000000       0.00000000       0.00000000      -0.00000000       0.00000000       0.00000000
Si       2.85421053       2.85421053       2.85421053       0.00000000      -0.00000000      -0.00000000
2
Lattice="5.769473684210526 0.0 0.0 0.0 5.769473684210526 0.0 0.0 0.0 5.769473684210526" Properties=species:S:1:pos:R:3:dft_force:R:3 dft_energy=-8.423849717349034 volume=192.0474700580259 dft_virial="_JSON [[-9.126682418547715e-05, -3.162256336416055e-20, -3.162256336416055e-20], [-3.162256336416055e-20, -9.126682418547703e-05, -3.162256336416055e-20], [-3.162256336416055e-20, -3.162256336416055e-20, -9.12668241854767e-05]]" scaling="_JSON [0.9947368421052631, 0.9947368421052631, 0.9947368421052631]" pbc="T T T"
Si       0.00000000       0.00000000       0.00000000       0.00000000       0.00000000       0.00000000
Si       2.88473684       2.88473684       2.88473684      -0.00000000      -0.00000000       0.00000000
2
Lattice="5.830526315789474 0.0 0.0 0.0 5.830526315789474 0.0 0.0 0.0 5.830526315789474" Properties=species:S:1:pos:R:3:dft_force:R:3 dft_energy=-8.424069316498729 volume=198.20895852923164 dft_virial="_JSON [[1.7220210654905413e-05, 9.03501810404587e-21, 3.162256336416055e-20], [3.162256336416055e-20, 1.7220210654905657e-05, 4.517509052022935e-21], [9.03501810404587e-21, 3.162256336416055e-20, 1.722021065490566e-05]]" scaling="_JSON [1.0052631578947369, 1.0052631578947369, 1.0052631578947369]" pbc="T T T"
Si       0.00000000       0.00000000       0.00000000      -0.00000000       0.00000000      -0.00000000
Si       2.91526316       2.91526316       2.91526316       0.00000000      -0.00000000       0.00000000
2
Lattice="5.891578947368421 0.0 0.0 0.0 5.891578947368421 0.0 0.0 0.0 5.891578947368421" Properties=species:S:1:pos:R:3:dft_force:R:3 dft_energy=-8.42366251637002 volume=204.500844056568 dft_virial="_JSON [[0.00010918991840209258, -4.517509052022935e-21, -4.517509052022935e-21], [-4.517509052022935e-21, 0.00010918991840209271, 0.0], [-4.517509052022935e-21, 0.0, 0.00010918991840209293]]" scaling="_JSON [1.0157894736842106, 1.0157894736842106, 1.0157894736842106]" pbc="T T T"
Si       0.00000000       0.00000000       0.00000000      -0.00000000      -0.00000000      -0.00000000
Si       2.94578947       2.94578947       2.94578947       0.00000000       0.00000000      -0.00000000
2
Lattice="5.9526315789473685 0.0 0.0 0.0 5.9526315789473685 0.0 0.0 0.0 5.9526315789473685" Properties=species:S:1:pos:R:3:dft_force:R:3 dft_energy=-8.422706308550032 volume=210.92449205423532 dft_virial="_JSON [[0.00018667778581624758, 0.0, -9.03501810404587e-21], [-9.03501810404587e-21, 0.00018667778581624777, 0.0], [0.0, -9.03501810404587e-21, 0.00018667778581624823]]" scaling="_JSON [1.0263157894736843, 1.0263157894736843, 1.0263157894736843]" pbc="T T T"
Si       0.00000000       0.00000000       0.00000000      -0.00000000       0.00000000      -0.00000000
Si       2.97631579       2.97631579       2.97631579       0.00000000      -0.00000000      -0.00000000
2
Lattice="6.013684210526315 0.0 0.0 0.0 6.013684210526315 0.0 0.0 0.0 6.013684210526315" Properties=species:S:1:pos:R:3:dft_force:R:3 dft_energy=-8.421254089310837 volume=217.4812679364338 dft_virial="_JSON [[0.0002546421479617039, 9.03501810404587e-21, 9.03501810404587e-21], [9.03501810404587e-21, 0.00025464214796170394, 9.03501810404587e-21], [9.03501810404587e-21, 9.03501810404587e-21, 0.0002546421479617045]]" scaling="_JSON [1.0368421052631578, 1.0368421052631578, 1.0368421052631578]" pbc="T T T"
Si       0.00000000       0.00000000       0.00000000       0.00000000       0.00000000       0.00000000
Si       3.00684211       3.00684211       3.00684211      -0.00000000      -0.00000000      -0.00000000
2
Lattice="6.0747368421052625 0.0 0.0 0.0 6.0747368421052625 0.0 0.0 0.0 6.0747368421052625" Properties=species:S:1:pos:R:3:dft_force:R:3 dft_energy=-8.419355524992444 volume=224.172537117364 dft_virial="_JSON [[0.0003102462808348908, -4.517509052022935e-21, -4.517509052022935e-21], [-4.517509052022935e-21, 0.00031024628083489085, -4.517509052022935e-21], [-4.517509052022935e-21, -4.517509052022935e-21, 0.00031024628083489014]]" scaling="_JSON [1.0473684210526315, 1.0473684210526315, 1.0473684210526315]" pbc="T T T"
Si       0.00000000       0.00000000       0.00000000       0.00000000      -0.00000000      -0.00000000
Si       3.03736842       3.03736842       3.03736842      -0.00000000       0.00000000      -0.00000000
2
Lattice="6.13578947368421 0.0 0.0 0.0 6.13578947368421 0.0 0.0 0.0 6.13578947368421" Properties=species:S:1:pos:R:3:dft_force:R:3 dft_energy=-8.417072752201314 volume=230.99966501122609 dft_virial="_JSON [[0.00035667780733110297, 0.0, 9.03501810404587e-21], [9.03501810404587e-21, 0.00035667780733110313, 0.0], [0.0, 9.03501810404587e-21, 0.00035667780733110243]]" scaling="_JSON [1.0578947368421052, 1.0578947368421052, 1.0578947368421052]" pbc="T T T"
Si       0.00000000       0.00000000       0.00000000      -0.00000000      -0.00000000      -0.00000000
Si       3.06789474       3.06789474       3.06789474       0.00000000       0.00000000      -0.00000000
2
Lattice="6.1968421052631575 0.0 0.0 0.0 6.1968421052631575 0.0 0.0 0.0 6.1968421052631575" Properties=species:S:1:pos:R:3:dft_force:R:3 dft_energy=-8.414461698830774 volume=237.96401703222037 dft_virial="_JSON [[0.0003912801882796233, 2.2587545260114674e-21, 2.2587545260114674e-21], [2.2587545260114674e-21, 0.000391280188279623, 0.0], [2.2587545260114674e-21, 0.0, 0.0003912801882796236]]" scaling="_JSON [1.068421052631579, 1.068421052631579, 1.068421052631579]" pbc="T T T"
Si       0.00000000       0.00000000       0.00000000      -0.00000000      -0.00000000      -0.00000000
Si       3.09842105       3.09842105       3.09842105      -0.00000000       0.00000000      -0.00000000
2
Lattice="6.257894736842105 0.0 0.0 0.0 6.257894736842105 0.0 0.0 0.0 6.257894736842105" Properties=species:S:1:pos:R:3:dft_force:R:3 dft_energy=-8.411591143836944 volume=245.06695859454726 dft_virial="_JSON [[0.00041539516351146396, 2.2587545260114674e-21, 2.2587545260114674e-21], [2.2587545260114674e-21, 0.0004153951635114644, 0.0], [2.2587545260114674e-21, 0.0, 0.00041539516351146374]]" scaling="_JSON [1.0789473684210527, 1.0789473684210527, 1.0789473684210527]" pbc="T T T"
Si       0.00000000       0.00000000       0.00000000       0.00000000       0.00000000       0.00000000
Si       3.12894737       3.12894737       3.12894737      -0.00000000      -0.00000000       0.00000000
2
Lattice="6.318947368421052 0.0 0.0 0.0 6.318947368421052 0.0 0.0 0.0 6.318947368421052" Properties=species:S:1:pos:R:3:dft_force:R:3 dft_energy=-8.408515861625801 volume=252.309855112407 dft_virial="_JSON [[0.00043381935073458157, -4.517509052022935e-21, -4.517509052022935e-21], [-4.517509052022935e-21, 0.0004338193507345815, -4.517509052022935e-21], [-4.517509052022935e-21, -4.517509052022935e-21, 0.0004338193507345818]]" scaling="_JSON [1.0894736842105264, 1.0894736842105264, 1.0894736842105264]" pbc="T T T"
Si       0.00000000       0.00000000       0.00000000       0.00000000      -0.00000000       0.00000000
Si       3.15947368       3.15947368       3.15947368      -0.00000000      -0.00000000      -0.00000000
2
Lattice="6.38 0.0 0.0 0.0 6.38 0.0 0.0 0.0 6.38" Properties=species:S:1:pos:R:3:dft_force:R:3 dft_energy=-8.40524467910887 volume=259.694072 dft_virial="_JSON [[0.00045185900302713403, 2.2587545260114674e-21, 2.2587545260114674e-21], [2.2587545260114674e-21, 0.0004518590030271343, 0.0], [2.2587545260114674e-21, 0.0, 0.0004518590030271337]]" scaling="_JSON [1.1, 1.1, 1.1]" pbc="T T T"
Si       0.00000000       0.00000000       0.00000000       0.00000000       0.00000000      -0.00000000
Si       3.19000000       3.19000000       3.19000000      -0.00000000       0.00000000       0.00000000
