2
Lattice="5.22 0.0 0.0 0.0 5.22 0.0 0.0 0.0 5.22" Properties=species:S:1:pos:R:3:dft_force:R:3 dft_energy=-8.379837853271447 volume=142.23664799999997 dft_virial="_JSON [[-0.002130531426470832, -6.32451267283211e-20, -6.32451267283211e-20], [-6.32451267283211e-20, -0.002130531426470833, -6.32451267283211e-20], [-6.32451267283211e-20, -6.32451267283211e-20, -0.002130531426470833]]" scaling="_JSON [0.9, 0.9, 0.9]" pbc="T T T"
Si       0.00000000       0.00000000       0.00000000       0.00000000       0.00000000       0.00000000
Si       2.61000000       2.61000000       2.61000000      -0.00000000      -0.00000000       0.00000000
2
Lattice="5.281052631578947 0.0 0.0 0.0 5.281052631578947 0.0 0.0 0.0 5.281052631578947" Properties=species:S:1:pos:R:3:dft_force:R:3 dft_energy=-8.38971990450309 volume=147.28600660504446 dft_virial="_JSON [[-0.0017789535604850783, 4.517509052022935e-21, 4.517509052022935e-21], [4.517509052022935e-21, -0.0017789535604850798, 0.0], [4.517509052022935e-21, 0.0, -0.0017789535604850776]]" scaling="_JSON [0.9105263157894737, 0.9105263157894737, 0.9105263157894737]" pbc="T T T"
Si       0.00000000       0.00000000       0.00000000      -0.00000000      -0.00000000       0.00000000
Si       2.64052632       2.64052632       2.64052632       0.00000000       0.00000000       0.00000000
2
Lattice="5.342105263157895 0.0 0.0 0.0 5.342105263157895 0.0 0.0 0.0 5.342105263157895" Properties=species:S:1:pos:R:3:dft_force:R:3 dft_energy=-8.398069721560466 volume=152.45347353841666 dft_virial="_JSON [[-0.001455660459728144, 0.0, 0.0], [0.0, -0.0014556604597281465, 0.0], [0.0, 0.0, -0.0014556604597281437]]" scaling="_JSON [0.9210526315789473, 0.9210526315789473, 0.9210526315789473]" pbc="T T T"
Si       0.00000000       0.00000000       0.00000000       0.00000000       0.00000000       0.00000000
Si       2.67105263       2.67105263       2.67105263      -0.00000000      -0.00000000       0.00000000
2
Lattice="5.403157894736842 0.0 0.0 0.0 5.403157894736842 0.0 0.0 0.0 5.403157894736842" Properties=species:S:1:pos:R:3:dft_force:R:3 dft_energy=-8.405006850278845 volume=157.74041421431696 dft_virial="_JSON [[-0.0011711860899615645, 1.3552527156068805e-20, 1.3552527156068805e-20], [1.3552527156068805e-20, -0.0011711860899615634, 9.03501810404587e-21], [1.3552527156068805e-20, 9.03501810404587e-21, -0.0011711860899615643]]" scaling="_JSON [0.9315789473684211, 0.9315789473684211, 0.9315789473684211]" pbc="T T T"
Si       0.00000000       0.00000000       0.00000000      -0.00000000       0.00000000       0.00000000
Si       2.70157895       2.70157895       2.70157895       0.00000000       0.00000000       0.00000000
2
Lattice="5.46421052631579 0.0 0.0 0.0 5.46421052631579 0.0 0.0 0.0 5.46421052631579" Properties=species:S:1:pos:R:3:dft_force:R:3 dft_energy=-8.410658008169484 volume=163.14819404694563 dft_virial="_JSON [[-0.000921819880026346, 5.872761767629815e-20, 5.872761767629815e-20], [5.872761767629815e-20, -0.000921819880026346, 6.32451267283211e-20], [5.872761767629815e-20, 6.32451267283211e-20, -0.0009218198800263456]]" scaling="_JSON [0.9421052631578948, 0.9421052631578948, 0.9421052631578948]" pbc="T T T"
Si       0.00000000       0.00000000       0.00000000      -0.00000000       0.00000000      -0.00000000
Si       2.73210526       2.73210526       2.73210526       0.00000000      -0.00000000      -0.00000000
2
Lattice="5.525263157894736 0.0 0.0 0.0 5.525263157894736 0.0 0.0 0.0 5.525263157894736" Properties=species:S:1:pos:R:3:dft_force:R:3 dft_energy=-8.415156549309911 volume=168.67817845050294 dft_virial="_JSON [[-0.0007103799743863661, 0.0, 0.0], [0.0, -0.000710379974386365, 0.0], [0.0, 0.0, -0.0007103799743863661]]" scaling="_JSON [0.9526315789473684, 0.9526315789473684, 0.9526315789473684]" pbc="T T T"
Si       0.00000000       0.00000000       0.00000000      -0.00000000       0.00000000      -0.00000000
Si       2.76263158       2.76263158       2.76263158       0.00000000      -0.00000000      -0.00000000
2
Lattice="5.586315789473684 0.0 0.0 0.0 5.586315789473684 0.0 0.0 0.0 5.586315789473684" Properties=species:S:1:pos:R:3:dft_force:R:3 dft_energy=-8.418649072961234 volume=174.33173283918933 dft_virial="_JSON [[-0.0005247338928529612, 9.03501810404587e-21, 9.03501810404587e-21], [9.03501810404587e-21, -0.0005247338928529602, 9.03501810404587e-21], [9.03501810404587e-21, 9.03501810404587e-21, -0.0005247338928529613]]" scaling="_JSON [0.9631578947368421, 0.9631578947368421, 0.9631578947368421]" pbc="T T T"
Si       0.00000000       0.00000000       0.00000000       0.00000000       0.00000000       0.00000000
Si       2.79315789       2.79315789       2.79315789      -0.00000000      -0.00000000      -0.00000000
2
Lattice="5.647368421052631 0.0 0.0 0.0 5.647368421052631 0.0 0.0 0.0 5.647368421052631" Properties=species:S:1:pos:R:3:dft_force:R:3 dft_energy=-8.421198823547927 volume=180.11022262720508 dft_virial="_JSON [[-0.0003589077478368758, -9.03501810404587e-21, -9.03501810404587e-21], [-9.03501810404587e-21, -0.0003589077478368765, -9.03501810404587e-21], [-9.03501810404587e-21, -9.03501810404587e-21, -0.0003589077478368759]]" scaling="_JSON [0.9736842105263158, 0.9736842105263158, 0.9736842105263158]" pbc="T T T"
Si       0.00000000       0.00000000       0.00000000      -0.00000000      -0.00000000       0.00000000
Si       2.82368421       2.82368421       2.82368421       0.00000000       0.00000000      -0.00000000
2
Lattice="5.708421052631579 0.0 0.0 0.0 5.708421052631579 0.0 0.0 0.0 5.708421052631579" Properties=species:S:1:pos:R:3:dft_force:R:3 dft_energy=-8.422890345996652 volume=186.01501322875052 dft_virial="_JSON [[-0.00021493677811676055, 0.0, 9.03501810404587e-21], [9.03501810404587e-21, -0.00021493677811676022, 0.0], [0.0, 9.03501810404587e-21, -0.0002149367781167604]]" scaling="_JSON [0.9842105263157894, 0.9842105263157894, 0.9842105263157894]" pbc="T T T"
Si       0.00000000       0.00000000       0.00000000      -0.00000000       0.00000000      -0.00000000
Si       2.85421053       2.85421053       2.85421053       0.00000000      -0.00000000      -0.00000000
2
Lattice="5.769473684210526 0.0 0.0 0.0 5.769473684210526 0.0 0.0 0.0 5.769473684210526" Properties=species:S:1:pos:R:3:dft_force:R:3 dft_energy=-8.423807897907874 volume=192.0474700580259 dft_virial="_JSON [[-8.984725675824125e-05, -3.162256336416055e-20, -3.162256336416055e-20], [-3.162256336416055e-20, -8.984725675824133e-05, -3.162256336416055e-20], [-3.162256336416055e-20, -3.162256336416055e-20, -8.984725675824133e-05]]" scaling="_JSON [0.9947368421052631, 0.9947368421052631, 0.9947368421052631]" pbc="T T T"
Si       0.00000000       0.00000000       0.00000000       0.00000000       0.00000000       0.00000000
Si       2.88473684       2.88473684       2.88473684      -0.00000000      -0.00000000       0.00000000
2
Lattice="5.830526315789474 0.0 0.0 0.0 5.830526315789474 0.0 0.0 0.0 5.830526315789474" Properties=species:S:1:pos:R:3:dft_force:R:3 dft_energy=-8.424027508371939 volume=198.20895852923164 dft_virial="_JSON [[1.8582040400145603e-05, -4.517509052022935e-21, -9.03501810404587e-21], [-9.03501810404587e-21, 1.8582040400146152e-05, 0.0], [-4.517509052022935e-21, -9.03501810404587e-21, 1.858204040014625e-05]]" scaling="_JSON [1.0052631578947369, 1.0052631578947369, 1.0052631578947369]" pbc="T T T"
Si       0.00000000       0.00000000       0.00000000      -0.00000000       0.00000000       0.00000000
Si       2.91526316       2.91526316       2.91526316       0.00000000      -0.00000000      -0.00000000
2
Lattice="5.891578947368421 0.0 0.0 0.0 5.891578947368421 0.0 0.0 0.0 5.891578947368421" Properties=species:S:1:pos:R:3:dft_force:R:3 dft_energy=-8.423621217108785 volume=204.500844056568 dft_virial="_JSON [[0.00011047777384126454, 0.0, 0.0], [0.0, 0.00011047777384126448, 0.0], [0.0, 0.0, 0.00011047777384126439]]" scaling="_JSON [1.0157894736842106, 1.0157894736842106, 1.0157894736842106]" pbc="T T T"
Si       0.00000000       0.00000000       0.00000000      -0.00000000      -0.00000000      -0.00000000
Si       2.94578947       2.94578947       2.94578947       0.00000000       0.00000000      -0.00000000
2
Lattice="5.9526315789473685 0.0 0.0 0.0 5.9526315789473685 0.0 0.0 0.0 5.9526315789473685" Properties=species:S:1:pos:R:3:dft_force:R:3 dft_energy=-8.422665380360542 volume=210.92449205423532 dft_virial="_JSON [[0.00018789797098936684, 0.0, 0.0], [0.0, 0.00018789797098936687, 0.0], [0.0, 0.0, 0.00018789797098936684]]" scaling="_JSON [1.0263157894736843, 1.0263157894736843, 1.0263157894736843]" pbc="T T T"
Si       0.00000000       0.00000000       0.00000000      -0.00000000       0.00000000       0.00000000
Si       2.97631579       2.97631579       2.97631579       0.00000000      -0.00000000      -0.00000000
2
Lattice="6.013684210526315 0.0 0.0 0.0 6.013684210526315 0.0 0.0 0.0 6.013684210526315" Properties=species:S:1:pos:R:3:dft_force:R:3 dft_energy=-8.421214180999629 volume=217.4812679364338 dft_virial="_JSON [[0.0002557777316460923, 0.0, 0.0], [0.0, 0.00025577773164609224, 0.0], [0.0, 0.0, 0.00025577773164609197]]" scaling="_JSON [1.0368421052631578, 1.0368421052631578, 1.0368421052631578]" pbc="T T T"
Si       0.00000000       0.00000000       0.00000000       0.00000000       0.00000000       0.00000000
Si       3.00684211       3.00684211       3.00684211      -0.00000000      -0.00000000       0.00000000
2
Lattice="6.0747368421052625 0.0 0.0 0.0 6.0747368421052625 0.0 0.0 0.0 6.0747368421052625" Properties=species:S:1:pos:R:3:dft_force:R:3 dft_energy=-8.419317559147672 volume=224.172537117364 dft_virial="_JSON [[0.00031129101146032927, 4.517509052022935e-21, 4.517509052022935e-21], [4.517509052022935e-21, 0.00031129101146032905, 4.517509052022935e-21], [4.517509052022935e-21, 4.517509052022935e-21, 0.0003112910114603298]]" scaling="_JSON [1.0473684210526315, 1.0473684210526315, 1.0473684210526315]" pbc="T T T"
Si       0.00000000       0.00000000       0.00000000       0.00000000      -0.00000000      -0.00000000
Si       3.03736842       3.03736842       3.03736842      -0.00000000       0.00000000      -0.00000000
2
Lattice="6.13578947368421 0.0 0.0 0.0 6.13578947368421 0.0 0.0 0.0 6.13578947368421" Properties=species:S:1:pos:R:3:dft_force:R:3 dft_energy=-8.417036822119819 volume=230.99966501122609 dft_virial="_JSON [[0.0003576532659087869, 4.517509052022935e-21, -4.517509052022935e-21], [-4.517509052022935e-21, 0.0003576532659087875, 4.517509052022935e-21], [4.517509052022935e-21, -4.517509052022935e-21, 0.000357653265908786]]" scaling="_JSON [1.0578947368421052, 1.0578947368421052, 1.0578947368421052]" pbc="T T T"
Si       0.00000000       0.00000000       0.00000000       0.00000000      -0.00000000       0.00000000
Si       3.06789474       3.06789474       3.06789474       0.00000000       0.00000000       0.00000000
2
Lattice="6.1968421052631575 0.0 0.0 0.0 6.1968421052631575 0.0 0.0 0.0 6.1968421052631575" Properties=species:S:1:pos:R:3:dft_force:R:3 dft_energy=-8.41442764196114 volume=237.96401703222037 dft_virial="_JSON [[0.0003922030997542919, 4.517509052022935e-21, -4.517509052022935e-21], [-4.517509052022935e-21, 0.00039220309975429205, 4.517509052022935e-21], [4.517509052022935e-21, -4.517509052022935e-21, 0.00039220309975429205]]" scaling="_JSON [1.068421052631579, 1.068421052631579, 1.068421052631579]" pbc="T T T"
Si       0.00000000       0.00000000       0.00000000      -0.00000000      -0.00000000      -0.00000000
Si       3.09842105       3.09842105       3.09842105      -0.00000000       0.00000000      -0.00000000
2
Lattice="6.257894736842105 0.0 0.0 0.0 6.257894736842105 0.0 0.0 0.0 6.257894736842105" Properties=species:S:1:pos:R:3:dft_force:R:3 dft_energy=-8.411558677974124 volume=245.06695859454726 dft_virial="_JSON [[0.0004162867522253524, 0.0, 0.0], [0.0, 0.00041628675222535214, 0.0], [0.0, 0.0, 0.000416286752225353]]" scaling="_JSON [1.0789473684210527, 1.0789473684210527, 1.0789473684210527]" pbc="T T T"
Si       0.00000000       0.00000000       0.00000000       0.00000000       0.00000000       0.00000000
Si       3.12894737       3.12894737       3.12894737      -0.00000000      -0.00000000      -0.00000000
2
Lattice="6.318947368421052 0.0 0.0 0.0 6.318947368421052 0.0 0.0 0.0 6.318947368421052" Properties=species:S:1:pos:R:3:dft_force:R:3 dft_energy=-8.408484714875346 volume=252.309855112407 dft_virial="_JSON [[0.00043468784385456696, -2.2587545260114674e-21, -2.2587545260114674e-21], [-2.2587545260114674e-21, 0.0004346878438545666, 0.0], [-2.2587545260114674e-21, 0.0, 0.00043468784385456756]]" scaling="_JSON [1.0894736842105264, 1.0894736842105264, 1.0894736842105264]" pbc="T T T"
Si       0.00000000       0.00000000       0.00000000       0.00000000      -0.00000000       0.00000000
Si       3.15947368       3.15947368       3.15947368      -0.00000000      -0.00000000      -0.00000000
2
Lattice="6.38 0.0 0.0 0.0 6.38 0.0 0.0 0.0 6.38" Properties=species:S:1:pos:R:3:dft_force:R:3 dft_energy=-8.40521274424386 volume=259.694072 dft_virial="_JSON [[0.00045273781296528514, -4.517509052022935e-21, -4.517509052022935e-21], [-4.517509052022935e-21, 0.00045273781296528514, -4.517509052022935e-21], [-4.517509052022935e-21, -4.517509052022935e-21, 0.00045273781296528487]]" scaling="_JSON [1.1, 1.1, 1.1]" pbc="T T T"
Si       0.00000000       0.00000000       0.00000000       0.00000000       0.00000000      -0.00000000
Si       3.19000000       3.19000000       3.19000000      -0.00000000       0.00000000       0.00000000
