2
Lattice="5.51 0.0 0.0 0.0 5.51 0.0 0.0 0.0 5.51" Properties=species:S:1:pos:R:3:dft_force:R:3 dft_energy=-8.412441416363901 volume=167.28415099999998 dft_virial="_JSON [[-0.0007413751127370744, -5.872761767629815e-20, 9.03501810404587e-21], [9.03501810404587e-21, -0.0007413751127370756, -6.32451267283211e-20], [-5.872761767629815e-20, 9.03501810404587e-21, -0.0007413751127370744]]" scaling="_JSON [0.95, 0.95, 0.95]" pbc="T T T"
Si       0.00000000       0.00000000       0.00000000       0.00000000       0.00000000       0.00000000
Si       2.75500000       2.75500000       2.75500000      -0.00000000       0.00000000      -0.00000000
2
Lattice="5.5405263157894735 0.0 0.0 0.0 5.5405263157894735 0.0 0.0 0.0 5.5405263157894735" Properties=species:S:1:pos:R:3:dft_force:R:3 dft_energy=-8.414492995552646 volume=170.07992902507652 dft_virial="_JSON [[-0.0006461089272068821, -9.03501810404587e-21, -9.03501810404587e-21], [-9.03501810404587e-21, -0.0006461089272068826, -9.03501810404587e-21], [-9.03501810404587e-21, -9.03501810404587e-21, -0.000646108927206882]]" scaling="_JSON [0.9552631578947368, 0.9552631578947368, 0.9552631578947368]" pbc="T T T"
Si       0.00000000       0.00000000       0.00000000      -0.00000000       0.00000000       0.00000000
Si       2.77026316       2.77026316       2.77026316       0.00000000      -0.00000000      -0.00000000
2
Lattice="5.571052631578947 0.0 0.0 0.0 5.571052631578947 0.0 0.0 0.0 5.571052631578947" Properties=species:S:1:pos:R:3:dft_force:R:3 dft_energy=-8.416291677668998 volume=172.90668488482285 dft_virial="_JSON [[-0.0005531375429264374, 4.517509052022935e-21, 9.03501810404587e-21], [9.03501810404587e-21, -0.0005531375429264362, 0.0], [4.517509052022935e-21, 9.03501810404587e-21, -0.0005531375429264374]]" scaling="_JSON [0.9605263157894737, 0.9605263157894737, 0.9605263157894737]" pbc="T T T"
Si       0.00000000       0.00000000       0.00000000      -0.00000000      -0.00000000       0.00000000
Si       2.78552632       2.78552632       2.78552632       0.00000000      -0.00000000      -0.00000000
2
Lattice="5.601578947368421 0.0 0.0 0.0 5.601578947368421 0.0 0.0 0.0 5.601578947368421" Properties=species:S:1:pos:R:3:dft_force:R:3 dft_energy=-8.417851068819102 volume=175.76458925601398 dft_virial="_JSON [[-0.0004649915347717364, 4.517509052022935e-21, 4.517509052022935e-21], [4.517509052022935e-21, -0.00046499153477173725, 0.0], [4.517509052022935e-21, 0.0, -0.0004649915347717363]]" scaling="_JSON [0.9657894736842105, 0.9657894736842105, 0.9657894736842105]" pbc="T T T"
Si       0.00000000       0.00000000       0.00000000       0.00000000       0.00000000      -0.00000000
Si       2.80078947       2.80078947       2.80078947      -0.00000000      -0.00000000       0.00000000
2
Lattice="5.632105263157895 0.0 0.0 0.0 5.632105263157895 0.0 0.0 0.0 5.632105263157895" Properties=species:S:1:pos:R:3:dft_force:R:3 dft_energy=-8.419162279915776 volume=178.65381281542497 dft_virial="_JSON [[-0.000382389077068177, -4.517509052022935e-21, -4.517509052022935e-21], [-4.517509052022935e-21, -0.0003823890770681756, 0.0], [-4.517509052022935e-21, 0.0, -0.00038238907706817705]]" scaling="_JSON [0.9710526315789474, 0.9710526315789474, 0.9710526315789474]" pbc="T T T"
Si       0.00000000       0.00000000       0.00000000      -0.00000000      -0.00000000       0.00000000
Si       2.81605263       2.81605263       2.81605263       0.00000000       0.00000000       0.00000000
2
Lattice="5.6626315789473685 0.0 0.0 0.0 5.6626315789473685 0.0 0.0 0.0 5.6626315789473685" Properties=species:S:1:pos:R:3:dft_force:R:3 dft_energy=-8.42028235440333 volume=181.5745262398309 dft_virial="_JSON [[-0.0003058662656025858, 0.0, 4.517509052022935e-21], [4.517509052022935e-21, -0.00030586626560258535, 0.0], [0.0, 0.0, -0.0003058662656025859]]" scaling="_JSON [0.9763157894736842, 0.9763157894736842, 0.9763157894736842]" pbc="T T T"
Si       0.00000000       0.00000000       0.00000000      -0.00000000       0.00000000       0.00000000
Si       2.83131579       2.83131579       2.83131579       0.00000000      -0.00000000       0.00000000
2
Lattice="5.693157894736842 0.0 0.0 0.0 5.693157894736842 0.0 0.0 0.0 5.693157894736842" Properties=species:S:1:pos:R:3:dft_force:R:3 dft_energy=-8.421160977559571 volume=184.52690020600673 dft_virial="_JSON [[-0.00023430489352027625, -3.162256336416055e-20, 9.03501810404587e-21], [9.03501810404587e-21, -0.00023430489352027647, -3.162256336416055e-20], [-3.162256336416055e-20, -4.517509052022935e-21, -0.00023430489352027566]]" scaling="_JSON [0.9815789473684211, 0.9815789473684211, 0.9815789473684211]" pbc="T T T"
Si       0.00000000       0.00000000       0.00000000      -0.00000000       0.00000000       0.00000000
Si       2.84657895       2.84657895       2.84657895       0.00000000      -0.00000000       0.00000000
2
Lattice="5.723684210526315 0.0 0.0 0.0 5.723684210526315 0.0 0.0 0.0 5.723684210526315" Properties=species:S:1:pos:R:3:dft_force:R:3 dft_energy=-8.421852443751327 volume=187.51110539072744 dft_virial="_JSON [[-0.00016766655762352991, 4.517509052022935e-21, 4.517509052022935e-21], [4.517509052022935e-21, -0.00016766655762352943, 4.517509052022935e-21], [4.517509052022935e-21, 4.517509052022935e-21, -0.00016766655762352994]]" scaling="_JSON [0.9868421052631579, 0.9868421052631579, 0.9868421052631579]" pbc="T T T"
Si       0.00000000       0.00000000       0.00000000       0.00000000       0.00000000       0.00000000
Si       2.86184211       2.86184211       2.86184211      -0.00000000      -0.00000000       0.00000000
2
Lattice="5.754210526315789 0.0 0.0 0.0 5.754210526315789 0.0 0.0 0.0 5.754210526315789" Properties=species:S:1:pos:R:3:dft_force:R:3 dft_energy=-8.422354222420358 volume=190.52731247076827 dft_virial="_JSON [[-0.00010560475779724272, -9.03501810404587e-21, -9.03501810404587e-21], [-9.03501810404587e-21, -0.0001056047577972428, -9.03501810404587e-21], [-9.03501810404587e-21, -9.03501810404587e-21, -0.000105604757797243]]" scaling="_JSON [0.9921052631578947, 0.9921052631578947, 0.9921052631578947]" pbc="T T T"
Si       0.00000000       0.00000000       0.00000000       0.00000000       0.00000000      -0.00000000
Si       2.87710526       2.87710526       2.87710526      -0.00000000      -0.00000000      -0.00000000
2
Lattice="5.7847368421052625 0.0 0.0 0.0 5.7847368421052625 0.0 0.0 0.0 5.7847368421052625" Properties=species:S:1:pos:R:3:dft_force:R:3 dft_energy=-8.422666613066085 volume=193.57569212290414 dft_virial="_JSON [[-4.77444381732202e-05, 9.03501810404587e-21, 0.0], [0.0, -4.7744438173219824e-05, 9.03501810404587e-21], [9.03501810404587e-21, 0.0, -4.774443817322003e-05]]" scaling="_JSON [0.9973684210526316, 0.9973684210526316, 0.9973684210526316]" pbc="T T T"
Si       0.00000000       0.00000000       0.00000000      -0.00000000       0.00000000      -0.00000000
Si       2.89236842       2.89236842       2.89236842       0.00000000      -0.00000000       0.00000000
2
Lattice="5.815263157894736 0.0 0.0 0.0 5.815263157894736 0.0 0.0 0.0 5.815263157894736" Properties=species:S:1:pos:R:3:dft_force:R:3 dft_energy=-8.422800486629354 volume=196.65641502391014 dft_virial="_JSON [[6.129400511474221e-06, -4.517509052022935e-21, 4.517509052022935e-21], [4.517509052022935e-21, 6.129400511474101e-06, -4.517509052022935e-21], [-4.517509052022935e-21, 4.517509052022935e-21, 6.1294005114741826e-06]]" scaling="_JSON [1.0026315789473683, 1.0026315789473683, 1.0026315789473683]" pbc="T T T"
Si       0.00000000       0.00000000       0.00000000      -0.00000000      -0.00000000       0.00000000
Si       2.90763158       2.90763158       2.90763158       0.00000000       0.00000000       0.00000000
2
Lattice="5.84578947368421 0.0 0.0 0.0 5.84578947368421 0.0 0.0 0.0 5.84578947368421" Properties=species:S:1:pos:R:3:dft_force:R:3 dft_energy=-8.422791563428316 volume=199.76965185056125 dft_virial="_JSON [[5.5998916256493415e-05, 9.03501810404587e-21, 9.03501810404587e-21], [9.03501810404587e-21, 5.5998916256493395e-05, 9.03501810404587e-21], [9.03501810404587e-21, 9.03501810404587e-21, 5.599891625649354e-05]]" scaling="_JSON [1.0078947368421052, 1.0078947368421052, 1.0078947368421052]" pbc="T T T"
Si       0.00000000       0.00000000       0.00000000      -0.00000000       0.00000000      -0.00000000
Si       2.92289474       2.92289474       2.92289474       0.00000000      -0.00000000      -0.00000000
2
Lattice="5.876315789473684 0.0 0.0 0.0 5.876315789473684 0.0 0.0 0.0 5.876315789473684" Properties=species:S:1:pos:R:3:dft_force:R:3 dft_energy=-8.42261087613275 volume=202.91557327963253 dft_virial="_JSON [[0.00010177498637831844, -4.517509052022935e-21, 4.0657581468206416e-20], [4.0657581468206416e-20, 0.00010177498637831826, 4.517509052022935e-21], [-4.517509052022935e-21, 3.162256336416055e-20, 0.00010177498637831837]]" scaling="_JSON [1.013157894736842, 1.013157894736842, 1.013157894736842]" pbc="T T T"
Si       0.00000000       0.00000000       0.00000000       0.00000000       0.00000000      -0.00000000
Si       2.93815789       2.93815789       2.93815789       0.00000000      -0.00000000      -0.00000000
2
Lattice="5.9068421052631574 0.0 0.0 0.0 5.9068421052631574 0.0 0.0 0.0 5.9068421052631574" Properties=species:S:1:pos:R:3:dft_force:R:3 dft_energy=-8.422300817099673 volume=206.09434998789905 dft_virial="_JSON [[0.00014325006475892613, 0.0, 0.0], [0.0, 0.00014325006475892583, 0.0], [0.0, 0.0, 0.00014325006475892556]]" scaling="_JSON [1.018421052631579, 1.018421052631579, 1.018421052631579]" pbc="T T T"
Si       0.00000000       0.00000000       0.00000000      -0.00000000       0.00000000       0.00000000
Si       2.95342105       2.95342105       2.95342105       0.00000000      -0.00000000       0.00000000
2
Lattice="5.937368421052631 0.0 0.0 0.0 5.937368421052631 0.0 0.0 0.0 5.937368421052631" Properties=species:S:1:pos:R:3:dft_force:R:3 dft_energy=-8.42184553212038 volume=209.30615265213584 dft_virial="_JSON [[0.00018176603645887304, 0.0, 0.0], [0.0, 0.00018176603645887298, 0.0], [0.0, 0.0, 0.00018176603645887282]]" scaling="_JSON [1.0236842105263158, 1.0236842105263158, 1.0236842105263158]" pbc="T T T"
Si       0.00000000       0.00000000       0.00000000      -0.00000000       0.00000000      -0.00000000
Si       2.96868421       2.96868421       2.96868421       0.00000000      -0.00000000      -0.00000000
2
Lattice="5.967894736842105 0.0 0.0 0.0 5.967894736842105 0.0 0.0 0.0 5.967894736842105" Properties=species:S:1:pos:R:3:dft_force:R:3 dft_energy=-8.421277952843493 volume=212.5511519491179 dft_virial="_JSON [[0.00021788974774940498, 9.03501810404587e-21, 9.03501810404587e-21], [9.03501810404587e-21, 0.0002178897477494049, 9.03501810404587e-21], [9.03501810404587e-21, 9.03501810404587e-21, 0.00021788974774940512]]" scaling="_JSON [1.0289473684210526, 1.0289473684210526, 1.0289473684210526]" pbc="T T T"
Si       0.00000000       0.00000000       0.00000000      -0.00000000       0.00000000       0.00000000
Si       2.98394737       2.98394737       2.98394737       0.00000000      -0.00000000       0.00000000
2
Lattice="5.998421052631579 0.0 0.0 0.0 5.998421052631579 0.0 0.0 0.0 5.998421052631579" Properties=species:S:1:pos:R:3:dft_force:R:3 dft_energy=-8.420576186276683 volume=215.82951855562033 dft_virial="_JSON [[0.00025187032096320297, 9.03501810404587e-21, 9.03501810404587e-21], [9.03501810404587e-21, 0.0002518703209632029, 9.03501810404587e-21], [9.03501810404587e-21, 9.03501810404587e-21, 0.0002518703209632026]]" scaling="_JSON [1.0342105263157895, 1.0342105263157895, 1.0342105263157895]" pbc="T T T"
Si       0.00000000       0.00000000       0.00000000      -0.00000000       0.00000000       0.00000000
Si       2.99921053       2.99921053       2.99921053       0.00000000      -0.00000000       0.00000000
2
Lattice="6.028947368421052 0.0 0.0 0.0 6.028947368421052 0.0 0.0 0.0 6.028947368421052" Properties=species:S:1:pos:R:3:dft_force:R:3 dft_energy=-8.419765762146293 volume=219.1414231484181 dft_virial="_JSON [[0.0002830635417755358, -4.517509052022935e-21, -4.517509052022935e-21], [-4.517509052022935e-21, 0.0002830635417755357, -4.517509052022935e-21], [-4.517509052022935e-21, -4.517509052022935e-21, 0.00028306354177553596]]" scaling="_JSON [1.0394736842105263, 1.0394736842105263, 1.0394736842105263]" pbc="T T T"
Si       0.00000000       0.00000000       0.00000000       0.00000000       0.00000000       0.00000000
Si       3.01447368       3.01447368       3.01447368      -0.00000000      -0.00000000      -0.00000000
2
Lattice="6.059473684210526 0.0 0.0 0.0 6.059473684210526 0.0 0.0 0.0 6.059473684210526" Properties=species:S:1:pos:R:3:dft_force:R:3 dft_energy=-8.418829866246519 volume=222.4870364042863 dft_virial="_JSON [[0.000310683112383155, 0.0, 0.0], [0.0, 0.00031068311238315505, 0.0], [0.0, 0.0, 0.000310683112383155]]" scaling="_JSON [1.0447368421052632, 1.0447368421052632, 1.0447368421052632]" pbc="T T T"
Si       0.00000000       0.00000000       0.00000000       0.00000000      -0.00000000      -0.00000000
Si       3.02973684       3.02973684       3.02973684      -0.00000000       0.00000000       0.00000000
2
Lattice="6.09 0.0 0.0 0.0 6.09 0.0 0.0 0.0 6.09" Properties=species:S:1:pos:R:3:dft_force:R:3 dft_energy=-8.417800267927262 volume=225.86652899999999 dft_virial="_JSON [[0.0003357161848229337, -4.517509052022935e-21, -4.517509052022935e-21], [-4.517509052022935e-21, 0.0003357161848229335, -4.517509052022935e-21], [-4.517509052022935e-21, -4.517509052022935e-21, 0.00033571618482293436]]" scaling="_JSON [1.05, 1.05, 1.05]" pbc="T T T"
Si       0.00000000       0.00000000       0.00000000       0.00000000       0.00000000       0.00000000
Si       3.04500000       3.04500000       3.04500000      -0.00000000      -0.00000000       0.00000000
