2
Lattice="5.22 0.0 0.0 0.0 5.22 0.0 0.0 0.0 5.22" Properties=species:S:1:pos:R:3:dft_force:R:3 dft_energy=-8.377519569457782 volume=142.23664799999997 dft_virial="_JSON [[-0.002108823666601915, -9.03501810404587e-21, -9.03501810404587e-21], [-9.03501810404587e-21, -0.0021088236666019153, -9.03501810404587e-21], [-9.03501810404587e-21, -9.03501810404587e-21, -0.0021088236666019153]]" scaling="_JSON [0.9, 0.9, 0.9]" pbc="T T T"
Si       0.00000000       0.00000000       0.00000000       0.00000000       0.00000000      -0.00000000
Si       2.61000000       2.61000000       2.61000000      -0.00000000      -0.00000000      -0.00000000
2
Lattice="5.281052631578947 0.0 0.0 0.0 5.281052631578947 0.0 0.0 0.0 5.281052631578947" Properties=species:S:1:pos:R:3:dft_force:R:3 dft_energy=-8.387574635285656 volume=147.28600660504446 dft_virial="_JSON [[-0.001754879612875004, 4.517509052022935e-21, 4.517509052022935e-21], [4.517509052022935e-21, -0.0017548796128750044, 0.0], [4.517509052022935e-21, 0.0, -0.001754879612875004]]" scaling="_JSON [0.9105263157894737, 0.9105263157894737, 0.9105263157894737]" pbc="T T T"
Si       0.00000000       0.00000000       0.00000000      -0.00000000      -0.00000000       0.00000000
Si       2.64052632       2.64052632       2.64052632       0.00000000       0.00000000       0.00000000
2
Lattice="5.342105263157895 0.0 0.0 0.0 5.342105263157895 0.0 0.0 0.0 5.342105263157895" Properties=species:S:1:pos:R:3:dft_force:R:3 dft_energy=-8.396065768018278 volume=152.45347353841666 dft_virial="_JSON [[-0.0014332925924448647, -9.03501810404587e-21, -9.03501810404587e-21], [-9.03501810404587e-21, -0.001433292592444864, -9.03501810404587e-21], [-9.03501810404587e-21, -9.03501810404587e-21, -0.0014332925924448656]]" scaling="_JSON [0.9210526315789473, 0.9210526315789473, 0.9210526315789473]" pbc="T T T"
Si       0.00000000       0.00000000       0.00000000       0.00000000       0.00000000      -0.00000000
Si       2.67105263       2.67105263       2.67105263      -0.00000000      -0.00000000       0.00000000
2
Lattice="5.403157894736842 0.0 0.0 0.0 5.403157894736842 0.0 0.0 0.0 5.403157894736842" Properties=species:S:1:pos:R:3:dft_force:R:3 dft_energy=-8.403116992931281 volume=157.74041421431696 dft_virial="_JSON [[-0.0011503998991819, 0.0, 0.0], [0.0, -0.0011503998991819, 0.0], [0.0, 0.0, -0.0011503998991818996]]" scaling="_JSON [0.9315789473684211, 0.9315789473684211, 0.9315789473684211]" pbc="T T T"
Si       0.00000000       0.00000000       0.00000000      -0.00000000       0.00000000       0.00000000
Si       2.70157895       2.70157895       2.70157895       0.00000000       0.00000000       0.00000000
2
Lattice="5.46421052631579 0.0 0.0 0.0 5.46421052631579 0.0 0.0 0.0 5.46421052631579" Properties=species:S:1:pos:R:3:dft_force:R:3 dft_energy=-8.408896138742891 volume=163.14819404694563 dft_virial="_JSON [[-0.0009027855265796629, -9.03501810404587e-21, -9.03501810404587e-21], [-9.03501810404587e-21, -0.0009027855265796621, -9.03501810404587e-21], [-9.03501810404587e-21, -9.03501810404587e-21, -0.0009027855265796634]]" scaling="_JSON [0.9421052631578948, 0.9421052631578948, 0.9421052631578948]" pbc="T T T"
Si       0.00000000       0.00000000       0.00000000      -0.00000000       0.00000000      -0.00000000
Si       2.73210526       2.73210526       2.73210526       0.00000000      -0.00000000      -0.00000000
2
Lattice="5.525263157894736 0.0 0.0 0.0 5.525263157894736 0.0 0.0 0.0 5.525263157894736" Properties=species:S:1:pos:R:3:dft_force:R:3 dft_energy=-8.41349008349936 volume=168.67817845050294 dft_virial="_JSON [[-0.0006932420275451972, 0.0, 0.0], [0.0, -0.000693242027545198, 0.0], [0.0, 0.0, -0.0006932420275451972]]" scaling="_JSON [0.9526315789473684, 0.9526315789473684, 0.9526315789473684]" pbc="T T T"
Si       0.00000000       0.00000000       0.00000000      -0.00000000       0.00000000       0.00000000
Si       2.76263158       2.76263158       2.76263158       0.00000000      -0.00000000      -0.00000000
2
Lattice="5.586315789473684 0.0 0.0 0.0 5.586315789473684 0.0 0.0 0.0 5.586315789473684" Properties=species:S:1:pos:R:3:dft_force:R:3 dft_energy=-8.41709072829068 volume=174.33173283918933 dft_virial="_JSON [[-0.0005081776586629351, 0.0, 0.0], [0.0, -0.000508177658662934, 0.0], [0.0, 0.0, -0.0005081776586629352]]" scaling="_JSON [0.9631578947368421, 0.9631578947368421, 0.9631578947368421]" pbc="T T T"
Si       0.00000000       0.00000000       0.00000000       0.00000000       0.00000000       0.00000000
Si       2.79315789       2.79315789       2.79315789      -0.00000000      -0.00000000      -0.00000000
2
Lattice="5.647368421052631 0.0 0.0 0.0 5.647368421052631 0.0 0.0 0.0 5.647368421052631" Properties=species:S:1:pos:R:3:dft_force:R:3 dft_energy=-8.419757034832813 volume=180.11022262720508 dft_virial="_JSON [[-0.0003436573472199923, -5.872761767629815e-20, -5.872761767629815e-20], [-5.872761767629815e-20, -0.0003436573472199917, -6.32451267283211e-20], [-5.872761767629815e-20, -6.32451267283211e-20, -0.00034365734721999254]]" scaling="_JSON [0.9736842105263158, 0.9736842105263158, 0.9736842105263158]" pbc="T T T"
Si       0.00000000       0.00000000       0.00000000      -0.00000000      -0.00000000       0.00000000
Si       2.82368421       2.82368421       2.82368421       0.00000000       0.00000000      -0.00000000
2
Lattice="5.708421052631579 0.0 0.0 0.0 5.708421052631579 0.0 0.0 0.0 5.708421052631579" Properties=species:S:1:pos:R:3:dft_force:R:3 dft_energy=-8.421528916510306 volume=186.01501322875052 dft_virial="_JSON [[-0.00020037303083686125, -9.03501810404587e-21, 0.0], [0.0, -0.00020037303083686106, -9.03501810404587e-21], [-9.03501810404587e-21, 0.0, -0.00020037303083686092]]" scaling="_JSON [0.9842105263157894, 0.9842105263157894, 0.9842105263157894]" pbc="T T T"
Si       0.00000000       0.00000000       0.00000000      -0.00000000       0.00000000      -0.00000000
Si       2.85421053       2.85421053       2.85421053       0.00000000      -0.00000000      -0.00000000
2
Lattice="5.769473684210526 0.0 0.0 0.0 5.769473684210526 0.0 0.0 0.0 5.769473684210526" Properties=species:S:1:pos:R:3:dft_force:R:3 dft_energy=-8.42252734878223 volume=192.0474700580259 dft_virial="_JSON [[-7.609753217550748e-05, 0.0, 0.0], [0.0, -7.609753217550728e-05, 0.0], [0.0, 0.0, -7.609753217550714e-05]]" scaling="_JSON [0.9947368421052631, 0.9947368421052631, 0.9947368421052631]" pbc="T T T"
Si       0.00000000       0.00000000       0.00000000       0.00000000       0.00000000       0.00000000
Si       2.88473684       2.88473684       2.88473684      -0.00000000      -0.00000000      -0.00000000
2
Lattice="5.830526315789474 0.0 0.0 0.0 5.830526315789474 0.0 0.0 0.0 5.830526315789474" Properties=species:S:1:pos:R:3:dft_force:R:3 dft_energy=-8.422809228233769 volume=198.20895852923164 dft_virial="_JSON [[3.1678159784992574e-05, 9.03501810404587e-21, 4.517509052022935e-21], [4.517509052022935e-21, 3.167815978499289e-05, 9.03501810404587e-21], [9.03501810404587e-21, 4.517509052022935e-21, 3.167815978499299e-05]]" scaling="_JSON [1.0052631578947369, 1.0052631578947369, 1.0052631578947369]" pbc="T T T"
Si       0.00000000       0.00000000       0.00000000      -0.00000000       0.00000000       0.00000000
Si       2.91526316       2.91526316       2.91526316       0.00000000      -0.00000000       0.00000000
2
Lattice="5.891578947368421 0.0 0.0 0.0 5.891578947368421 0.0 0.0 0.0 5.891578947368421" Properties=species:S:1:pos:R:3:dft_force:R:3 dft_energy=-8.422466765436685 volume=204.500844056568 dft_virial="_JSON [[0.00012305944394406845, 4.517509052022935e-21, 4.517509052022935e-21], [4.517509052022935e-21, 0.00012305944394406843, 4.517509052022935e-21], [4.517509052022935e-21, 4.517509052022935e-21, 0.0001230594439440683]]" scaling="_JSON [1.0157894736842106, 1.0157894736842106, 1.0157894736842106]" pbc="T T T"
Si       0.00000000       0.00000000       0.00000000      -0.00000000      -0.00000000      -0.00000000
Si       2.94578947       2.94578947       2.94578947       0.00000000       0.00000000      -0.00000000
2
Lattice="5.9526315789473685 0.0 0.0 0.0 5.9526315789473685 0.0 0.0 0.0 5.9526315789473685" Properties=species:S:1:pos:R:3:dft_force:R:3 dft_energy=-8.421580971454668 volume=210.92449205423532 dft_virial="_JSON [[0.00020004327195867973, 4.517509052022935e-21, -4.517509052022935e-21], [-4.517509052022935e-21, 0.00020004327195867962, 4.517509052022935e-21], [4.517509052022935e-21, -4.517509052022935e-21, 0.00020004327195867973]]" scaling="_JSON [1.0263157894736843, 1.0263157894736843, 1.0263157894736843]" pbc="T T T"
Si       0.00000000       0.00000000       0.00000000      -0.00000000       0.00000000      -0.00000000
Si       2.97631579       2.97631579       2.97631579       0.00000000      -0.00000000      -0.00000000
2
Lattice="6.013684210526315 0.0 0.0 0.0 6.013684210526315 0.0 0.0 0.0 6.013684210526315" Properties=species:S:1:pos:R:3:dft_force:R:3 dft_energy=-8.420179246114758 volume=217.4812679364338 dft_virial="_JSON [[0.00026788646446033337, 4.517509052022935e-21, 4.517509052022935e-21], [4.517509052022935e-21, 0.0002678864644603333, 4.517509052022935e-21], [4.517509052022935e-21, 4.517509052022935e-21, 0.0002678864644603331]]" scaling="_JSON [1.0368421052631578, 1.0368421052631578, 1.0368421052631578]" pbc="T T T"
Si       0.00000000       0.00000000       0.00000000       0.00000000       0.00000000       0.00000000
Si       3.00684211       3.00684211       3.00684211      -0.00000000      -0.00000000       0.00000000
2
Lattice="6.0747368421052625 0.0 0.0 0.0 6.0747368421052625 0.0 0.0 0.0 6.0747368421052625" Properties=species:S:1:pos:R:3:dft_force:R:3 dft_energy=-8.41833037343708 volume=224.172537117364 dft_virial="_JSON [[0.00032311348638114866, 0.0, 0.0], [0.0, 0.0003231134863811487, 0.0], [0.0, 0.0, 0.0003231134863811485]]" scaling="_JSON [1.0473684210526315, 1.0473684210526315, 1.0473684210526315]" pbc="T T T"
Si       0.00000000       0.00000000       0.00000000       0.00000000      -0.00000000      -0.00000000
Si       3.03736842       3.03736842       3.03736842      -0.00000000       0.00000000      -0.00000000
2
Lattice="6.13578947368421 0.0 0.0 0.0 6.13578947368421 0.0 0.0 0.0 6.13578947368421" Properties=species:S:1:pos:R:3:dft_force:R:3 dft_energy=-8.416081365507456 volume=230.99966501122609 dft_virial="_JSON [[0.0003693102863930287, 0.0, 0.0], [0.0, 0.00036931028639302824, 0.0], [0.0, 0.0, 0.0003693102863930288]]" scaling="_JSON [1.0578947368421052, 1.0578947368421052, 1.0578947368421052]" pbc="T T T"
Si       0.00000000       0.00000000       0.00000000      -0.00000000      -0.00000000       0.00000000
Si       3.06789474       3.06789474       3.06789474       0.00000000       0.00000000       0.00000000
2
Lattice="6.1968421052631575 0.0 0.0 0.0 6.1968421052631575 0.0 0.0 0.0 6.1968421052631575" Properties=species:S:1:pos:R:3:dft_force:R:3 dft_energy=-8.413496495667856 volume=237.96401703222037 dft_virial="_JSON [[0.0004036057054573842, 2.2587545260114674e-21, 2.2587545260114674e-21], [2.2587545260114674e-21, 0.0004036057054573844, 0.0], [2.2587545260114674e-21, 0.0, 0.00040360570545738334]]" scaling="_JSON [1.068421052631579, 1.068421052631579, 1.068421052631579]" pbc="T T T"
Si       0.00000000       0.00000000       0.00000000      -0.00000000      -0.00000000      -0.00000000
Si       3.09842105       3.09842105       3.09842105      -0.00000000       0.00000000      -0.00000000
2
Lattice="6.257894736842105 0.0 0.0 0.0 6.257894736842105 0.0 0.0 0.0 6.257894736842105" Properties=species:S:1:pos:R:3:dft_force:R:3 dft_energy=-8.41065767514102 volume=245.06695859454726 dft_virial="_JSON [[0.00042736177366976515, 0.0, 0.0], [0.0, 0.00042736177366976477, 0.0], [0.0, 0.0, 0.0004273617736697655]]" scaling="_JSON [1.0789473684210527, 1.0789473684210527, 1.0789473684210527]" pbc="T T T"
Si       0.00000000       0.00000000       0.00000000       0.00000000       0.00000000       0.00000000
Si       3.12894737       3.12894737       3.12894737      -0.00000000      -0.00000000       0.00000000
2
Lattice="6.318947368421052 0.0 0.0 0.0 6.318947368421052 0.0 0.0 0.0 6.318947368421052" Properties=species:S:1:pos:R:3:dft_force:R:3 dft_energy=-8.407605385193511 volume=252.309855112407 dft_virial="_JSON [[0.00044580741132175297, 4.517509052022935e-21, 4.517509052022935e-21], [4.517509052022935e-21, 0.00044580741132175275, 4.517509052022935e-21], [4.517509052022935e-21, 4.517509052022935e-21, 0.00044580741132175297]]" scaling="_JSON [1.0894736842105264, 1.0894736842105264, 1.0894736842105264]" pbc="T T T"
Si       0.00000000       0.00000000       0.00000000       0.00000000      -0.00000000       0.00000000
Si       3.15947368       3.15947368       3.15947368      -0.00000000      -0.00000000      -0.00000000
2
Lattice="6.38 0.0 0.0 0.0 6.38 0.0 0.0 0.0 6.38" Properties=species:S:1:pos:R:3:dft_force:R:3 dft_energy=-8.404359048502087 volume=259.694072 dft_virial="_JSON [[0.00046376673777099496, 2.2587545260114674e-21, 2.2587545260114674e-21], [2.2587545260114674e-21, 0.00046376673777099507, 0.0], [2.2587545260114674e-21, 0.0, 0.00046376673777099453]]" scaling="_JSON [1.1, 1.1, 1.1]" pbc="T T T"
Si       0.00000000       0.00000000       0.00000000       0.00000000       0.00000000      -0.00000000
Si       3.19000000       3.19000000       3.19000000      -0.00000000      -0.00000000       0.00000000
