8
Lattice="9.234 0.0 0.0 0.0 9.234 0.0 0.0 0.0 9.234" Properties=species:S:1:pos:R:3:dft_force:R:3 dft_energy=-33.60992063811032 volume=787.3532249040001 dft_virial="_JSON [[-0.0020075294047015376, 0.0, 0.0], [0.0, -0.0020075294047015376, 0.0], [0.0, 0.0, -0.002007529404701537]]" scaling="_JSON [0.9, 0.9, 0.9]" pbc="T T T"
Si       0.00000000       0.00000000       0.00000000       0.00000000       0.00000000       0.00000000
Si       0.00000000       4.61700000       4.61700000      -0.00000000      -0.00000000       0.00000000
Si       4.61700000       0.00000000       4.61700000      -0.00000000      -0.00000000       0.00000000
Si       4.61700000       4.61700000       0.00000000      -0.00000000      -0.00000000       0.00000000
Si       2.30850000       2.30850000       2.30850000       0.00000000       0.00000000      -0.00000000
Si       2.30850000       6.92550000       6.92550000       0.00000000       0.00000000      -0.00000000
Si       6.92550000       2.30850000       6.92550000      -0.00000000       0.00000000      -0.00000000
Si       6.92550000       6.92550000       2.30850000      -0.00000000       0.00000000      -0.00000000
8
Lattice="9.462 0.0 0.0 0.0 9.462 0.0 0.0 0.0 9.462" Properties=species:S:1:pos:R:3:dft_force:R:3 dft_energy=-33.70987919522537 volume=847.1275991279999 dft_virial="_JSON [[-0.0013675597908154814, 0.0, 0.0], [0.0, -0.0013675597908154808, 0.0], [0.0, 0.0, -0.001367559790815481]]" scaling="_JSON [0.9222222222222223, 0.9222222222222223, 0.9222222222222223]" pbc="T T T"
Si       0.00000000       0.00000000       0.00000000      -0.00000000       0.00000000      -0.00000000
Si       0.00000000       4.73100000       4.73100000      -0.00000000      -0.00000000      -0.00000000
Si       4.73100000       0.00000000       4.73100000       0.00000000       0.00000000      -0.00000000
Si       4.73100000       4.73100000       0.00000000       0.00000000       0.00000000      -0.00000000
Si       2.36550000       2.36550000       2.36550000      -0.00000000      -0.00000000      -0.00000000
Si       2.36550000       7.09650000       7.09650000      -0.00000000      -0.00000000      -0.00000000
Si       7.09650000       2.36550000       7.09650000      -0.00000000      -0.00000000      -0.00000000
Si       7.09650000       7.09650000       2.36550000       0.00000000      -0.00000000      -0.00000000
8
Lattice="9.69 0.0 0.0 0.0 9.69 0.0 0.0 0.0 9.69" Properties=species:S:1:pos:R:3:dft_force:R:3 dft_energy=-33.779178984414344 volume=909.8532089999999 dft_virial="_JSON [[-0.0008667456051657129, 1.4117215787571672e-22, 2.8234431575143343e-22], [1.4117215787571672e-22, -0.000866745605165713, 2.8234431575143343e-22], [2.8234431575143343e-22, 2.8234431575143343e-22, -0.0008667456051657129]]" scaling="_JSON [0.9444444444444444, 0.9444444444444444, 0.9444444444444444]" pbc="T T T"
Si       0.00000000       0.00000000       0.00000000       0.00000000      -0.00000000       0.00000000
Si       0.00000000       4.84500000       4.84500000      -0.00000000       0.00000000       0.00000000
Si       4.84500000       0.00000000       4.84500000       0.00000000      -0.00000000      -0.00000000
Si       4.84500000       4.84500000       0.00000000       0.00000000       0.00000000       0.00000000
Si       2.42250000       2.42250000       2.42250000      -0.00000000       0.00000000      -0.00000000
Si       2.42250000       7.26750000       7.26750000      -0.00000000      -0.00000000       0.00000000
Si       7.26750000       2.42250000       7.26750000       0.00000000      -0.00000000       0.00000000
Si       7.26750000       7.26750000       2.42250000       0.00000000       0.00000000      -0.00000000
8
Lattice="9.918 0.0 0.0 0.0 9.918 0.0 0.0 0.0 9.918" Properties=species:S:1:pos:R:3:dft_force:R:3 dft_energy=-33.822815223726934 volume=975.6011686319998 dft_virial="_JSON [[-0.0004805143990290108, -1.4117215787571672e-22, -1.4117215787571672e-22], [-1.4117215787571672e-22, -0.00048051439902901076, -1.4117215787571672e-22], [-1.4117215787571672e-22, -1.4117215787571672e-22, -0.0004805143990290108]]" scaling="_JSON [0.9666666666666667, 0.9666666666666667, 0.9666666666666667]" pbc="T T T"
Si       0.00000000       0.00000000       0.00000000      -0.00000000       0.00000000       0.00000000
Si       0.00000000       4.95900000       4.95900000      -0.00000000      -0.00000000       0.00000000
Si       4.95900000       0.00000000       4.95900000       0.00000000       0.00000000      -0.00000000
Si       4.95900000       4.95900000       0.00000000       0.00000000       0.00000000      -0.00000000
Si       2.47950000       2.47950000       2.47950000      -0.00000000      -0.00000000      -0.00000000
Si       2.47950000       7.43850000       7.43850000      -0.00000000       0.00000000       0.00000000
Si       7.43850000       2.47950000       7.43850000      -0.00000000      -0.00000000       0.00000000
Si       7.43850000       7.43850000       2.47950000       0.00000000      -0.00000000      -0.00000000
8
Lattice="10.146 0.0 0.0 0.0 10.146 0.0 0.0 0.0 10.146" Properties=species:S:1:pos:R:3:dft_force:R:3 dft_energy=-33.84523934982739 volume=1044.4425921360003 dft_virial="_JSON [[-0.00018668143726329435, 0.0, -1.4117215787571672e-22], [-1.4117215787571672e-22, -0.00018668143726329435, 0.0], [0.0, -1.4117215787571672e-22, -0.00018668143726329435]]" scaling="_JSON [0.9888888888888889, 0.9888888888888889, 0.9888888888888889]" pbc="T T T"
Si       0.00000000       0.00000000       0.00000000       0.00000000      -0.00000000      -0.00000000
Si       0.00000000       5.07300000       5.07300000       0.00000000      -0.00000000      -0.00000000
Si       5.07300000       0.00000000       5.07300000       0.00000000       0.00000000       0.00000000
Si       5.07300000       5.07300000       0.00000000       0.00000000      -0.00000000      -0.00000000
Si       2.53650000       2.53650000       2.53650000      -0.00000000       0.00000000      -0.00000000
Si       2.53650000       7.60950000       7.60950000      -0.00000000      -0.00000000       0.00000000
Si       7.60950000       2.53650000       7.60950000      -0.00000000       0.00000000      -0.00000000
Si       7.60950000       7.60950000       2.53650000      -0.00000000       0.00000000      -0.00000000
8
Lattice="10.373999999999999 0.0 0.0 0.0 10.373999999999999 0.0 0.0 0.0 10.373999999999999" Properties=species:S:1:pos:R:3:dft_force:R:3 dft_energy=-33.85031378737767 volume=1116.4485936239996 dft_virial="_JSON [[3.333949277872765e-05, 7.058607893785836e-23, 1.4117215787571672e-22], [7.058607893785836e-23, 3.333949277872765e-05, 1.4117215787571672e-22], [1.4117215787571672e-22, 1.4117215787571672e-22, 3.333949277872764e-05]]" scaling="_JSON [1.011111111111111, 1.011111111111111, 1.011111111111111]" pbc="T T T"
Si       0.00000000       0.00000000       0.00000000      -0.00000000      -0.00000000       0.00000000
Si       0.00000000       5.18700000       5.18700000      -0.00000000      -0.00000000       0.00000000
Si       5.18700000       0.00000000       5.18700000      -0.00000000      -0.00000000       0.00000000
Si       5.18700000       5.18700000       0.00000000      -0.00000000      -0.00000000       0.00000000
Si       2.59350000       2.59350000       2.59350000      -0.00000000      -0.00000000      -0.00000000
Si       2.59350000       7.78050000       7.78050000       0.00000000       0.00000000      -0.00000000
Si       7.78050000       2.59350000       7.78050000       0.00000000       0.00000000      -0.00000000
Si       7.78050000       7.78050000       2.59350000       0.00000000      -0.00000000       0.00000000
8
Lattice="10.602 0.0 0.0 0.0 10.602 0.0 0.0 0.0 10.602" Properties=species:S:1:pos:R:3:dft_force:R:3 dft_energy=-33.841375204594435 volume=1191.690287208 dft_virial="_JSON [[0.00019453867370918158, 1.4117215787571672e-22, 1.4117215787571672e-22], [1.4117215787571672e-22, 0.00019453867370918147, 1.4117215787571672e-22], [1.4117215787571672e-22, 1.4117215787571672e-22, 0.0001945386737091815]]" scaling="_JSON [1.0333333333333334, 1.0333333333333334, 1.0333333333333334]" pbc="T T T"
Si       0.00000000       0.00000000       0.00000000      -0.00000000       0.00000000       0.00000000
Si       0.00000000       5.30100000       5.30100000      -0.00000000       0.00000000       0.00000000
Si       5.30100000       0.00000000       5.30100000       0.00000000      -0.00000000      -0.00000000
Si       5.30100000       5.30100000       0.00000000       0.00000000       0.00000000       0.00000000
Si       2.65050000       2.65050000       2.65050000      -0.00000000      -0.00000000       0.00000000
Si       2.65050000       7.95150000       7.95150000      -0.00000000       0.00000000      -0.00000000
Si       7.95150000       2.65050000       7.95150000       0.00000000      -0.00000000       0.00000000
Si       7.95150000       7.95150000       2.65050000       0.00000000      -0.00000000       0.00000000
8
Lattice="10.83 0.0 0.0 0.0 10.83 0.0 0.0 0.0 10.83" Properties=species:S:1:pos:R:3:dft_force:R:3 dft_energy=-33.821300700947944 volume=1270.238787 dft_virial="_JSON [[0.00030903887082654724, -7.058607893785836e-23, 1.4117215787571672e-22], [7.058607893785836e-23, 0.0003090388708265473, -1.4117215787571672e-22], [-1.4117215787571672e-22, 1.4117215787571672e-22, 0.00030903887082654713]]" scaling="_JSON [1.0555555555555556, 1.0555555555555556, 1.0555555555555556]" pbc="T T T"
Si       0.00000000       0.00000000       0.00000000       0.00000000       0.00000000       0.00000000
Si       0.00000000       5.41500000       5.41500000      -0.00000000       0.00000000       0.00000000
Si       5.41500000       0.00000000       5.41500000       0.00000000       0.00000000       0.00000000
Si       5.41500000       5.41500000       0.00000000       0.00000000       0.00000000       0.00000000
Si       2.70750000       2.70750000       2.70750000      -0.00000000       0.00000000      -0.00000000
Si       2.70750000       8.12250000       8.12250000      -0.00000000       0.00000000      -0.00000000
Si       8.12250000       2.70750000       8.12250000      -0.00000000       0.00000000      -0.00000000
Si       8.12250000       8.12250000       2.70750000       0.00000000       0.00000000      -0.00000000
8
Lattice="11.058 0.0 0.0 0.0 11.058 0.0 0.0 0.0 11.058" Properties=species:S:1:pos:R:3:dft_force:R:3 dft_energy=-33.79256293784775 volume=1352.165207112 dft_virial="_JSON [[0.0003867066836259765, 0.0, 0.0], [0.0, 0.0003867066836259762, 0.0], [0.0, 0.0, 0.00038670668362597647]]" scaling="_JSON [1.0777777777777777, 1.0777777777777777, 1.0777777777777777]" pbc="T T T"
Si       0.00000000       0.00000000       0.00000000       0.00000000      -0.00000000       0.00000000
Si       0.00000000       5.52900000       5.52900000       0.00000000      -0.00000000      -0.00000000
Si       5.52900000       0.00000000       5.52900000      -0.00000000      -0.00000000      -0.00000000
Si       5.52900000       5.52900000       0.00000000       0.00000000       0.00000000       0.00000000
Si       2.76450000       2.76450000       2.76450000       0.00000000      -0.00000000      -0.00000000
Si       2.76450000       8.29350000       8.29350000       0.00000000       0.00000000      -0.00000000
Si       8.29350000       2.76450000       8.29350000      -0.00000000       0.00000000      -0.00000000
Si       8.29350000       8.29350000       2.76450000      -0.00000000       0.00000000      -0.00000000
8
Lattice="11.286000000000001 0.0 0.0 0.0 11.286000000000001 0.0 0.0 0.0 11.286000000000001" Properties=species:S:1:pos:R:3:dft_force:R:3 dft_energy=-33.75727072988418 volume=1437.5406616560006 dft_virial="_JSON [[0.00043566535160537346, 0.0, 0.0], [0.0, 0.00043566535160537346, 0.0], [0.0, 0.0, 0.00043566535160537346]]" scaling="_JSON [1.1, 1.1, 1.1]" pbc="T T T"
Si       0.00000000       0.00000000       0.00000000      -0.00000000       0.00000000       0.00000000
Si       0.00000000       5.64300000       5.64300000      -0.00000000      -0.00000000       0.00000000
Si       5.64300000       0.00000000       5.64300000      -0.00000000      -0.00000000       0.00000000
Si       5.64300000       5.64300000       0.00000000      -0.00000000       0.00000000       0.00000000
Si       2.82150000       2.82150000       2.82150000       0.00000000      -0.00000000      -0.00000000
Si       2.82150000       8.46450000       8.46450000       0.00000000      -0.00000000       0.00000000
Si       8.46450000       2.82150000       8.46450000       0.00000000      -0.00000000       0.00000000
Si       8.46450000       8.46450000       2.82150000       0.00000000      -0.00000000       0.00000000
