4
Lattice="6.57 0.0 0.0 0.0 6.57 0.0 0.0 0.0 6.57" Properties=species:S:1:pos:R:3:dft_force:R:3 dft_energy=-16.773531269677957 volume=283.59339300000005 dft_virial="_JSON [[-0.0017909514898283851, 0.0, 0.0], [0.0, -0.001790951489828385, 0.0], [0.0, 0.0, -0.0017909514898283851]]" scaling="_JSON [0.9, 0.9, 0.9]" pbc="T T T"
Si       0.00000000       0.00000000       0.00000000       0.00000000      -0.00000000       0.00000000
Si       3.28500000       3.28500000       0.00000000      -0.00000000      -0.00000000       0.00000000
Si       3.28500000       0.00000000       3.28500000      -0.00000000      -0.00000000       0.00000000
Si       0.00000000       3.28500000       3.28500000       0.00000000      -0.00000000       0.00000000
4
Lattice="6.732222222222222 0.0 0.0 0.0 6.732222222222222 0.0 0.0 0.0 6.732222222222222" Properties=species:S:1:pos:R:3:dft_force:R:3 dft_energy=-16.805005828137045 volume=305.1232693813443 dft_virial="_JSON [[-0.0011757048599677108, 2.2587545260114674e-21, 1.1293772630057337e-21], [1.1293772630057337e-21, -0.0011757048599677115, 1.1293772630057337e-21], [2.2587545260114674e-21, 1.1293772630057337e-21, -0.0011757048599677097]]" scaling="_JSON [0.9222222222222223, 0.9222222222222223, 0.9222222222222223]" pbc="T T T"
Si       0.00000000       0.00000000       0.00000000      -0.00000000      -0.00000000       0.00000000
Si       3.36611111       3.36611111       0.00000000       0.00000000       0.00000000       0.00000000
Si       3.36611111       0.00000000       3.36611111      -0.00000000       0.00000000       0.00000000
Si       0.00000000       3.36611111       3.36611111       0.00000000       0.00000000       0.00000000
4
Lattice="6.894444444444444 0.0 0.0 0.0 6.894444444444444 0.0 0.0 0.0 6.894444444444444" Properties=species:S:1:pos:R:3:dft_force:R:3 dft_energy=-16.82631136621772 volume=327.7161387174211 dft_virial="_JSON [[-0.0007241141428018248, 2.2587545260114674e-21, 2.2587545260114674e-21], [2.2587545260114674e-21, -0.0007241141428018253, 2.2587545260114674e-21], [2.2587545260114674e-21, 2.2587545260114674e-21, -0.0007241141428018247]]" scaling="_JSON [0.9444444444444444, 0.9444444444444444, 0.9444444444444444]" pbc="T T T"
Si       0.00000000       0.00000000       0.00000000       0.00000000      -0.00000000      -0.00000000
Si       3.44722222       3.44722222       0.00000000      -0.00000000       0.00000000       0.00000000
Si       3.44722222       0.00000000       3.44722222       0.00000000      -0.00000000       0.00000000
Si       0.00000000       3.44722222       3.44722222      -0.00000000       0.00000000       0.00000000
4
Lattice="7.056666666666667 0.0 0.0 0.0 7.056666666666667 0.0 0.0 0.0 7.056666666666667" Properties=species:S:1:pos:R:3:dft_force:R:3 dft_energy=-16.839027501067882 volume=351.3976152962963 dft_virial="_JSON [[-0.0003731333437731205, 1.5811281682080274e-20, 1.5811281682080274e-20], [1.5811281682080274e-20, -0.0003731333437731208, 1.6940658945086007e-20], [1.5811281682080274e-20, 1.6940658945086007e-20, -0.0003731333437731199]]" scaling="_JSON [0.9666666666666667, 0.9666666666666667, 0.9666666666666667]" pbc="T T T"
Si       0.00000000       0.00000000       0.00000000       0.00000000       0.00000000      -0.00000000
Si       3.52833333       3.52833333       0.00000000      -0.00000000       0.00000000       0.00000000
Si       3.52833333       0.00000000       3.52833333      -0.00000000       0.00000000      -0.00000000
Si       0.00000000       3.52833333       3.52833333       0.00000000      -0.00000000      -0.00000000
4
Lattice="7.218888888888889 0.0 0.0 0.0 7.218888888888889 0.0 0.0 0.0 7.218888888888889" Properties=species:S:1:pos:R:3:dft_force:R:3 dft_energy=-16.84533461111926 volume=376.1933134060357 dft_virial="_JSON [[-0.00014155458178828688, -1.1293772630057337e-21, -1.1293772630057337e-21], [-1.1293772630057337e-21, -0.00014155458178828688, -1.1293772630057337e-21], [-1.1293772630057337e-21, -1.1293772630057337e-21, -0.00014155458178828672]]" scaling="_JSON [0.9888888888888889, 0.9888888888888889, 0.9888888888888889]" pbc="T T T"
Si       0.00000000       0.00000000       0.00000000       0.00000000       0.00000000       0.00000000
Si       3.60944444       3.60944444       0.00000000      -0.00000000       0.00000000       0.00000000
Si       3.60944444       0.00000000       3.60944444      -0.00000000       0.00000000       0.00000000
Si       0.00000000       3.60944444       3.60944444       0.00000000       0.00000000       0.00000000
4
Lattice="7.38111111111111 0.0 0.0 0.0 7.38111111111111 0.0 0.0 0.0 7.38111111111111" Properties=species:S:1:pos:R:3:dft_force:R:3 dft_energy=-16.846291369934523 volume=402.128847334705 dft_virial="_JSON [[5.854497620735993e-05, -2.2587545260114674e-21, -2.2587545260114674e-21], [-2.2587545260114674e-21, 5.854497620736015e-05, -1.6940658945086007e-21], [-2.2587545260114674e-21, -1.6940658945086007e-21, 5.854497620735993e-05]]" scaling="_JSON [1.011111111111111, 1.011111111111111, 1.011111111111111]" pbc="T T T"
Si       0.00000000       0.00000000       0.00000000       0.00000000       0.00000000      -0.00000000
Si       3.69055556       3.69055556       0.00000000      -0.00000000      -0.00000000      -0.00000000
Si       3.69055556       0.00000000       3.69055556      -0.00000000       0.00000000      -0.00000000
Si       0.00000000       3.69055556       3.69055556       0.00000000      -0.00000000      -0.00000000
4
Lattice="7.543333333333334 0.0 0.0 0.0 7.543333333333334 0.0 0.0 0.0 7.543333333333334" Properties=species:S:1:pos:R:3:dft_force:R:3 dft_energy=-16.842580377652 volume=429.22983137037045 dft_virial="_JSON [[0.00020605044851484237, 1.1293772630057337e-21, 1.1293772630057337e-21], [1.1293772630057337e-21, 0.00020605044851484264, 5.646886315028669e-22], [1.1293772630057337e-21, 5.646886315028669e-22, 0.00020605044851484215]]" scaling="_JSON [1.0333333333333334, 1.0333333333333334, 1.0333333333333334]" pbc="T T T"
Si       0.00000000       0.00000000       0.00000000      -0.00000000      -0.00000000       0.00000000
Si       3.77166667       3.77166667       0.00000000       0.00000000       0.00000000      -0.00000000
Si       3.77166667       0.00000000       3.77166667       0.00000000      -0.00000000       0.00000000
Si       0.00000000       3.77166667       3.77166667      -0.00000000       0.00000000       0.00000000
4
Lattice="7.705555555555556 0.0 0.0 0.0 7.705555555555556 0.0 0.0 0.0 7.705555555555556" Properties=species:S:1:pos:R:3:dft_force:R:3 dft_energy=-16.8351410619989 volume=457.52187980109744 dft_virial="_JSON [[0.00031396470400736127, 0.0, 0.0], [0.0, 0.0003139647040073614, 0.0], [0.0, 0.0, 0.0003139647040073614]]" scaling="_JSON [1.0555555555555556, 1.0555555555555556, 1.0555555555555556]" pbc="T T T"
Si       0.00000000       0.00000000       0.00000000      -0.00000000      -0.00000000      -0.00000000
Si       3.85277778       3.85277778       0.00000000       0.00000000       0.00000000       0.00000000
Si       3.85277778       0.00000000       3.85277778       0.00000000      -0.00000000       0.00000000
Si       0.00000000       3.85277778       3.85277778      -0.00000000      -0.00000000       0.00000000
4
Lattice="7.8677777777777775 0.0 0.0 0.0 7.8677777777777775 0.0 0.0 0.0 7.8677777777777775" Properties=species:S:1:pos:R:3:dft_force:R:3 dft_energy=-16.824746222682293 volume=487.030606914952 dft_virial="_JSON [[0.0003836754808087877, 7.905640841040137e-21, 7.905640841040137e-21], [7.905640841040137e-21, 0.0003836754808087875, 8.470329472543003e-21], [7.905640841040137e-21, 8.470329472543003e-21, 0.0003836754808087878]]" scaling="_JSON [1.0777777777777777, 1.0777777777777777, 1.0777777777777777]" pbc="T T T"
Si       0.00000000       0.00000000       0.00000000      -0.00000000      -0.00000000      -0.00000000
Si       3.93388889       3.93388889       0.00000000       0.00000000       0.00000000      -0.00000000
Si       3.93388889       0.00000000       3.93388889      -0.00000000      -0.00000000      -0.00000000
Si       0.00000000       3.93388889       3.93388889       0.00000000       0.00000000      -0.00000000
4
Lattice="8.030000000000001 0.0 0.0 0.0 8.030000000000001 0.0 0.0 0.0 8.030000000000001" Properties=species:S:1:pos:R:3:dft_force:R:3 dft_energy=-16.812101120149254 volume=517.7816270000002 dft_virial="_JSON [[0.00043445880954084455, -5.646886315028669e-22, -5.646886315028669e-22], [-5.646886315028669e-22, 0.00043445880954084466, -5.646886315028669e-22], [-5.646886315028669e-22, -5.646886315028669e-22, 0.00043445880954084466]]" scaling="_JSON [1.1, 1.1, 1.1]" pbc="T T T"
Si       0.00000000       0.00000000       0.00000000      -0.00000000       0.00000000      -0.00000000
Si       4.01500000       4.01500000       0.00000000       0.00000000      -0.00000000       0.00000000
Si       4.01500000       0.00000000       4.01500000      -0.00000000       0.00000000       0.00000000
Si       0.00000000       4.01500000       4.01500000       0.00000000      -0.00000000       0.00000000
