2
Lattice="4.95 2.475 0.0 0.0 4.286825748732971 0.0 0.0 0.0 8.083316151184489" Properties=species:S:1:pos:R:3:dft_force:R:3 dft_energy=-8.407316639608833 volume=171.52625066963148 dft_virial="_JSON [[-0.00034198517098633354, 5.541559771227912e-05, 0.0], [5.541559771227912e-05, -0.0017035588471562256, 0.0], [0.0, 0.0, -0.0004745652407845544]]" scaling="_JSON [0.9, 0.9, 0.9]" pbc="T T T"
Si       0.00000000       0.00000000       0.00000000       0.00026776      -0.00114224       0.00000000
Si       2.47500000       1.42894192       4.04165808      -0.00026776       0.00114224       0.00000000
2
Lattice="5.072222222222223 2.5361111111111114 0.0 0.0 4.392673298084403 0.0 0.0 0.0 8.282904204300156" Properties=species:S:1:pos:R:3:dft_force:R:3 dft_energy=-8.415449508298193 volume=184.54820063118314 dft_virial="_JSON [[-8.367037053719082e-05, 4.168588751045641e-05, 0.0], [4.168588751045641e-05, -0.0010593084388874617, 0.0], [0.0, 0.0, -0.00015424116321649184]]" scaling="_JSON [0.9222222222222223, 0.9222222222222223, 0.9222222222222223]" pbc="T T T"
Si       0.00000000       0.00000000       0.00000000      -0.00033243      -0.00098332       0.00000000
Si       2.53611111       1.46422443       4.14145210       0.00033243       0.00098332      -0.00000000
2
Lattice="5.194444444444445 2.5972222222222223 0.0 0.0 4.498520847435834 0.0 0.0 0.0 8.48249225741582" Properties=species:S:1:pos:R:3:dft_force:R:3 dft_energy=-8.41923552051025 volume=198.2130823411958 dft_virial="_JSON [[8.178771351736915e-05, 4.202774886872376e-05, 0.0], [4.202774886872381e-05, -0.0005692694942140824, 0.0], [0.0, 0.0, 7.441111686400442e-05]]" scaling="_JSON [0.9444444444444444, 0.9444444444444444, 0.9444444444444444]" pbc="T T T"
Si       0.00000000       0.00000000       0.00000000      -0.00073280      -0.00084752       0.00000000
Si       2.59722222       1.49950695       4.24124613       0.00073280       0.00084752      -0.00000000
2
Lattice="5.316666666666666 2.658333333333333 0.0 0.0 4.604368396787265 0.0 0.0 0.0 8.682080310531488" Properties=species:S:1:pos:R:3:dft_force:R:3 dft_energy=-8.419534948152107 volume=212.53638813095773 dft_virial="_JSON [[0.0002085564205459991, 4.951044666960417e-05, 0.0], [4.951044666960417e-05, -0.000196203440507383, 0.0], [0.0, 0.0, 0.00022914081815215512]]" scaling="_JSON [0.9666666666666667, 0.9666666666666667, 0.9666666666666667]" pbc="T T T"
Si       0.00000000       0.00000000       0.00000000      -0.00105383      -0.00075026      -0.00000000
Si       2.65833333       1.53478947       4.34104016       0.00105383       0.00075025      -0.00000000
2
Lattice="5.438888888888889 2.7194444444444446 0.0 0.0 4.710215946138697 0.0 0.0 0.0 8.881668363647155" Properties=species:S:1:pos:R:3:dft_force:R:3 dft_energy=-8.417093947659092 volume=227.53361033175727 dft_virial="_JSON [[0.00030416792680268044, 4.74030970991038e-05, 0.0], [4.74030970991038e-05, 5.58242864540738e-05, 0.0], [0.0, 0.0, 0.00034773521334168953]]" scaling="_JSON [0.9888888888888889, 0.9888888888888889, 0.9888888888888889]" pbc="T T T"
Si       0.00000000       0.00000000       0.00000000      -0.00122287      -0.00064108       0.00000000
Si       2.71944444       1.57007198       4.44083418       0.00122287       0.00064108       0.00000000
2
Lattice="5.561111111111111 2.7805555555555554 0.0 0.0 4.816063495490128 0.0 0.0 0.0 9.08125641676282" Properties=species:S:1:pos:R:3:dft_force:R:3 dft_energy=-8.412501514970677 volume=243.22024127488254 dft_virial="_JSON [[0.0003598765651518636, 4.229340144032798e-05, 0.0], [4.229340144032798e-05, 0.0002405244165169157, 0.0], [0.0, 0.0, 0.0004259764120070942]]" scaling="_JSON [1.011111111111111, 1.011111111111111, 1.011111111111111]" pbc="T T T"
Si       0.00000000       0.00000000       0.00000000      -0.00125711      -0.00060229       0.00000000
Si       2.78055556       1.60535450       4.54062821       0.00125711       0.00060229      -0.00000000
2
Lattice="5.683333333333334 2.841666666666667 0.0 0.0 4.92191104484156 0.0 0.0 0.0 9.280844469878488" Properties=species:S:1:pos:R:3:dft_force:R:3 dft_energy=-8.40624359617052 volume=259.6117732916218 dft_virial="_JSON [[0.00039888605943932053, 3.495517426201249e-05, 0.0], [3.4955174262012474e-05, 0.0003716875985442648, 0.0], [0.0, 0.0, 0.0004760266447178927]]" scaling="_JSON [1.0333333333333334, 1.0333333333333334, 1.0333333333333334]" pbc="T T T"
Si       0.00000000       0.00000000       0.00000000      -0.00121823      -0.00054125       0.00000000
Si       2.84166667       1.64063701       4.64042223       0.00121823       0.00054125      -0.00000000
2
Lattice="5.805555555555555 2.9027777777777777 0.0 0.0 5.027758594192991 0.0 0.0 0.0 9.480432522994153" Properties=species:S:1:pos:R:3:dft_force:R:3 dft_energy=-8.39871627142283 volume=276.7236987132631 dft_virial="_JSON [[0.0004302855455367539, 2.73874319104202e-05, 0.0], [2.73874319104202e-05, 0.00045318298638759503, 0.0], [0.0, 0.0, 0.0004930249256669383]]" scaling="_JSON [1.0555555555555556, 1.0555555555555556, 1.0555555555555556]" pbc="T T T"
Si       0.00000000       0.00000000       0.00000000      -0.00115607      -0.00047354      -0.00000000
Si       2.90277778       1.67591953       4.74021626       0.00115607       0.00047354      -0.00000000
2
Lattice="5.927777777777777 2.9638888888888886 0.0 0.0 5.133606143544422 0.0 0.0 0.0 9.680020576109818" Properties=species:S:1:pos:R:3:dft_force:R:3 dft_energy=-8.390305037093508 volume=294.57150987109486 dft_virial="_JSON [[0.0004458061679081467, 1.7852735892691823e-05, 0.0], [1.7852735892691823e-05, 0.0005059999000826888, 0.0], [0.0, 0.0, 0.0004939245143746553]]" scaling="_JSON [1.0777777777777777, 1.0777777777777777, 1.0777777777777777]" pbc="T T T"
Si       0.00000000       0.00000000       0.00000000      -0.00113437      -0.00046238       0.00000000
Si       2.96388889       1.71120205       4.84001029       0.00113436       0.00046237      -0.00000000
2
Lattice="6.050000000000001 3.0250000000000004 0.0 0.0 5.239453692895854 0.0 0.0 0.0 9.879608629225487" Properties=species:S:1:pos:R:3:dft_force:R:3 dft_energy=-8.381233650977382 volume=313.17069909640543 dft_virial="_JSON [[0.0004434312664780779, 1.6092374762894855e-05, 0.0], [1.609237476289486e-05, 0.0005395364419538086, 0.0], [0.0, 0.0, 0.0004907254557160964]]" scaling="_JSON [1.1, 1.1, 1.1]" pbc="T T T"
Si       0.00000000       0.00000000       0.00000000      -0.00105278      -0.00044314      -0.00000000
Si       3.02500000       1.74648456       4.93980431       0.00105278       0.00044314       0.00000000
