1
Lattice="20.0 0.0 0.0 0.0 20.0 0.0 0.0 0.0 20.0" Properties=species:S:1:pos:R:3:map_shift:I:3:n_neighb:I:1:gap_force:R:3:dft_force:R:3 cutoff=5.5 dft_virial="0.0 0.0 0.0 0.0 0.0 0.0 0.0 0.0 0.0" nneightol=1.2 config_type=isolated_atom gap_virial="0.0 0.0 0.0 0.0 0.0 0.0 0.0 0.0 0.0" dft_energy=-158.54496821 gap_energy=-157.7272532 pbc="T T T"
Si      10.00000000      10.00000000      10.00000000       -1       -1       -1        0       0.00000000       0.00000000       0.00000000       0.00000000       0.00000000       0.00000000
16
Lattice="5.311804 5.311868 2.3e-05 4e-06 5.311888 5.311791 5.311814 1.3e-05 5.311782" Properties=species:S:1:pos:R:3:frac_pos:R:3:dft_force:R:3 opt_strategy_bias=3 num_dump_cycles=0 fix_occupancy=F castep_run_time=196.79 dft_virial="16.2499194 -1.38399403 -1.0514363 -1.38399403 16.24407107 1.24872478 -1.0514363 1.24872478 16.34038141" cutoff_factor=1.2 finite_basis_corr=automatic spin_polarized=F standardized_energy=-0.7795350106635371 elec_energy_tol=1e-07 nextra_bands=200 cutoff=-1.0 energy_per_atom=-163.125768625 mixing_scheme=pulay smearing_width="0.05 eV" dft_energy=-2610.012298 centered_energy=-1.2565325136338288 in_file=md_sample_dia.xyz@236 nneightol=1.2 xc_functional=PW91 max_scf_cycles=250 fine_grid_scale=4 cut_off_energy="250 eV" task=SinglePoint popn_calculate=F castep_file_name=md_sample_dia.xyz-00236/eval.castep calculate_stress=T config_type=dia mix_history_length=20 kpoints_mp_grid="6 6 6" pbc="T T T"
Si       0.03389462      -0.06886858      -0.04672254       0.00110600      -0.01407100       0.00527500       0.04584000       0.59150000       0.40651000
Si       1.25758186       1.39533093       1.30115171       0.12723900       0.13544200       0.10951300       0.62181000      -0.67884000      -0.55655000
Si       2.57379179       0.09302288       2.70331470      -0.00343800       0.02094900       0.48797900       0.32547000       0.03031000      -0.25040000
Si       4.04543424       1.33019800       3.99974404       0.12950800       0.12091000       0.63208400      -0.34110000       0.04397000      -0.16223000
Si       0.03614350       2.70427137       2.65112572       0.00840000       0.50069800      -0.00159600      -0.61238000      -0.01313000       0.45969000
Si       1.39566440       3.94473477       4.00065674       0.12610300       0.61652100       0.13664400       0.57005000      -0.14924000      -0.04660000
Si       2.70582416       2.60976925       5.37304713      -0.00541500       0.49672100       0.51481200      -0.22020000      -0.00272000       0.10745000
Si       3.94471914       4.02200805       6.73002030       0.11640200       0.64076800       0.62622900      -0.42837000       0.10600000      -0.14172000
Si       2.64346166       2.65863222      -0.06934967       0.50561200      -0.00510400      -0.00795400       0.02050000       0.01700000       0.40231000
Si       4.03120418       3.94015110       1.29356719       0.62857600       0.11318700       0.13033800      -0.26410000      -0.28710000      -0.31771000
Si       5.35790485       2.67400084       2.65731555       0.50590600      -0.00250600       0.50277200      -0.10581000      -0.16874000       0.19607000
Si       6.58529981       4.05487841       4.03056920       0.62215600       0.14120400       0.61759100       0.50909000      -0.45670000      -0.45875000
Si       2.70868209       5.24462421       2.60856302       0.50309400       0.48424500       0.00684200      -0.56361000       0.30962000       0.02904000
Si       3.97024782       6.63524885       3.91927591       0.62936500       0.61976900       0.11807300       0.21306000       0.12859000       0.05766000
Si       5.23708452       5.29951854       5.31955306       0.49107200       0.50660000       0.49486000      -0.49002000       0.42229000       0.30778000
Si       6.59128293       6.58143571       6.64627543       0.61432300       0.62467900       0.62655000       0.71977000       0.10718000      -0.03255000
16
Lattice="5.312157 5.312226 5.6e-05 -2.3e-05 5.312306 5.312192 5.312187 2.6e-05 5.312143" Properties=species:S:1:pos:R:3:frac_pos:R:3:dft_force:R:3 opt_strategy_bias=3 num_dump_cycles=0 fix_occupancy=F castep_run_time=197.11 dft_virial="16.25865488 -0.66836046 -1.30415348 -0.66836046 16.35580518 -0.25780936 -1.30415348 -0.25780936 16.41524394" cutoff_factor=1.2 finite_basis_corr=automatic spin_polarized=F standardized_energy=-0.7946333414655973 elec_energy_tol=1e-07 nextra_bands=200 cutoff=-1.0 energy_per_atom=-163.1272896875 mixing_scheme=pulay smearing_width="0.05 eV" dft_energy=-2610.036635 centered_energy=-1.280869513633661 in_file=md_sample_dia.xyz@237 nneightol=1.2 xc_functional=PW91 max_scf_cycles=250 fine_grid_scale=4 cut_off_energy="250 eV" task=SinglePoint popn_calculate=F castep_file_name=md_sample_dia.xyz-00237/eval.castep calculate_stress=T config_type=dia mix_history_length=20 kpoints_mp_grid="6 6 6" pbc="T T T"
Si       0.04054797      -0.02158437      -0.04789444       0.00629300      -0.01035600       0.00134000       0.20293000      -0.40698000       0.41654000
Si       1.30490005       1.36480912       1.29929992       0.12898600       0.12793000       0.11665800      -0.15809000      -0.24756000       0.18711000
Si       2.60410278       0.08528089       2.72130538      -0.00300800       0.01905900       0.49322100      -0.08689000      -0.12431000      -0.39067000
Si       4.01153923       1.32247326       4.02267053       0.12342300       0.12552100       0.63173600       0.28568000       0.09934000      -0.45459000
Si      -0.00867583       2.68684187       2.65016795       0.00263100       0.50314600      -0.00426200       0.01284000       0.24230000      -0.19343000
Si       1.40680856       3.93273063       3.97860386       0.12809000       0.61221700       0.13674000      -0.17765000       0.20144000      -0.10995000
Si       2.71060646       2.61771582       5.33023905      -0.00018800       0.49295000       0.51045200      -0.49946000       0.24016000       0.59600000
Si       3.90815230       4.04918425       6.69073010       0.11920800       0.64301800       0.61649100      -0.01747000      -0.47930000       0.28532000
Si       2.62585225       2.63434305      -0.04934326       0.49975300      -0.00385100      -0.00544300       0.29679000       0.46145000       0.06482000
Si       4.01235305       3.94515313       1.29220894       0.62736000       0.11529300       0.12795500       0.29731000      -0.37644000      -0.49473000
Si       5.33156152       2.64948578       2.67537189       0.49938600      -0.00063600       0.50426400       0.15675000       0.10132000      -0.08639000
Si       6.60178881       4.04793802       4.01978281       0.62402900       0.13797000       0.61873800      -0.14019000      -0.41757000      -0.06841000
Si       2.73351362       5.24678637       2.61556522       0.50494400       0.48273000       0.00963500      -0.66032000       0.32488000       0.15007000
Si       3.97681344       6.64393698       3.93232111       0.62953300       0.62114500       0.11909400      -0.06740000       0.03477000       0.11649000
Si       5.20170430       5.30684526       5.32551822       0.48783800       0.51113900       0.49136900       0.83728000       0.61342000       0.29900000
Si       6.66013741       6.61096683       6.66552988       0.62173100       0.62273800       0.63202200      -0.28212000      -0.26691000      -0.31717000
16
Lattice="5.31252 5.312596 5.9e-05 -9.3e-05 5.312747 5.312617 5.312556 2.2e-05 5.312502" Properties=species:S:1:pos:R:3:frac_pos:R:3:dft_force:R:3 opt_strategy_bias=3 num_dump_cycles=0 fix_occupancy=F castep_run_time=197.17 dft_virial="16.19073479 1.61609264 0.59074097 1.61609264 16.46723496 -0.92327749 0.59074097 -0.92327749 16.48519003" cutoff_factor=1.2 finite_basis_corr=automatic spin_polarized=F standardized_energy=-0.7797447010858795 elec_energy_tol=1e-07 nextra_bands=200 cutoff=-1.0 energy_per_atom=-163.12578975 mixing_scheme=pulay smearing_width="0.05 eV" dft_energy=-2610.012636 centered_energy=-1.2568705136336575 in_file=md_sample_dia.xyz@238 nneightol=1.2 xc_functional=PW91 max_scf_cycles=250 fine_grid_scale=4 cut_off_energy="250 eV" task=SinglePoint popn_calculate=F castep_file_name=md_sample_dia.xyz-00238/eval.castep calculate_stress=T config_type=dia mix_history_length=20 kpoints_mp_grid="6 6 6" pbc="T T T"
Si       0.07331902      -0.00270507      -0.00248669       0.00688000      -0.00738900       0.00692100      -0.34910000      -0.58415000      -0.43249000
Si       1.34526659       1.33594254       1.30980843       0.12907100       0.12239200       0.12415600      -0.55638000       0.57083000       0.51115000
Si       2.61648027       0.07170141       2.71049863      -0.00210400       0.01559800       0.49461300      -0.16668000      -0.22533000       0.20726000
Si       3.99607233       1.33705950       4.01896165       0.12368100       0.12799000       0.62851600       0.47317000      -0.19368000       0.12954000
Si      -0.05757691       2.69948085       2.63929348       0.00024400       0.50787000      -0.01107300       0.50934000      -0.18959000      -0.40076000
Si       1.38918252       3.93962938       3.93732193       0.13096000       0.61058600       0.13054200      -0.62544000       0.09850000       0.48530000
Si       2.67338590       2.63862982       5.33978584      -0.00261900       0.49927700       0.50584800      -0.06800000       0.31110000      -0.20932000
Si       3.87377725       4.04708719       6.68450485       0.11635600       0.64541400       0.61283000       0.61011000      -0.09094000      -0.17522000
Si       2.64287795       2.64073158      -0.03007679       0.50010900      -0.00303900      -0.00262800      -0.02333000       0.08124000      -0.33278000
Si       4.00582029       3.92203815       1.25827334       0.62772100       0.11052800       0.12631400       0.47036000       0.35709000       0.51646000
Si       5.33158912       2.62948025       2.68202448       0.49684500      -0.00189500       0.50674100       0.08942000       0.08969000      -0.58685000
Si       6.60910377       4.00550781       4.00231024       0.62232600       0.13163200       0.62173400      -0.26770000       0.18018000       0.24728000
Si       2.69031573       5.26114323       2.63387560       0.50047400       0.48982700       0.00594500       0.51076000      -0.14459000      -0.27481000
Si       3.97653769       6.64289757       3.94448729       0.62822400       0.62216300       0.12030800      -0.07481000      -0.05908000       0.13367000
Si       5.24281108       5.34502734       5.34425258       0.49350600       0.51258200       0.49337800       0.56865000      -0.14811000       0.08978000
Si       6.71604803       6.61329033       6.65316141       0.62833600       0.61647600       0.63586300      -1.10037000      -0.05317000       0.09177000
16
Lattice="5.312937 5.313022 5.4e-05 -0.000122 5.313198 5.313052 5.312959 3.1e-05 5.312898" Properties=species:S:1:pos:R:3:frac_pos:R:3:dft_force:R:3 opt_strategy_bias=3 num_dump_cycles=0 fix_occupancy=F castep_run_time=196.75 dft_virial="16.22005832 0.26243387 1.33374382 0.26243387 16.23659675 0.05601987 1.33374382 0.05601987 16.27939186" cutoff_factor=1.2 finite_basis_corr=automatic spin_polarized=F standardized_energy=-0.797650898314087 elec_energy_tol=1e-07 nextra_bands=200 cutoff=-1.0 energy_per_atom=-163.1275936875 mixing_scheme=pulay smearing_width="0.05 eV" dft_energy=-2610.041499 centered_energy=-1.2857335136336587 in_file=md_sample_dia.xyz@239 nneightol=1.2 xc_functional=PW91 max_scf_cycles=250 fine_grid_scale=4 cut_off_energy="250 eV" task=SinglePoint popn_calculate=F castep_file_name=md_sample_dia.xyz-00239/eval.castep calculate_stress=T config_type=dia mix_history_length=20 kpoints_mp_grid="6 6 6" pbc="T T T"
Si       0.07494560      -0.02573754       0.00564114       0.00410000      -0.00894400       0.01000600      -0.36212000       0.28612000      -0.20286000
Si       1.33453304       1.36375698       1.33667216       0.12814000       0.12853700       0.12304800      -0.07622000      -0.11185000      -0.08761000
Si       2.60639252       0.05183060       2.71382501      -0.00523700       0.01498900       0.49581000       0.08080000      -0.17791000       0.27243000
Si       4.00224428       1.33371163       4.03328635       0.12258800       0.12843100       0.63071400       0.09842000       0.06254000       0.02575000
Si      -0.05663372       2.69332776       2.58279947       0.00507100       0.50184200      -0.01571900       0.13877000      -0.29668000       0.54721000
Si       1.32792781       3.95995033       3.93275163       0.12752800       0.61778000       0.12242800      -0.21657000      -0.10186000       0.05665000
Si       2.62091636       2.68565149       5.33592252      -0.00276800       0.50823300       0.49608600       0.32740000      -0.32222000      -0.49800000
Si       3.88322477       4.01677651       6.67623941       0.11516100       0.64083900       0.61575100       0.46417000       0.84712000      -0.45892000
Si       2.65039077       2.64885440      -0.02655377       0.50120900      -0.00265000      -0.00235300      -0.02346000       0.04387000      -0.22723000
Si       4.03065974       3.93214300       1.26207139       0.63060200       0.10948900       0.12805000      -0.01251000       0.16447000       0.57749000
Si       5.35459737       2.61439283       2.64308084       0.50121500      -0.00914500       0.50662400      -0.49803000      -0.05365000      -0.00437000
Si       6.58275850       3.97654178       3.99925249       0.61735800       0.13108600       0.62164800       0.16580000       0.39869000       0.19502000
Si       2.68841922       5.25774162       2.64713707       0.49868800       0.49089100       0.00733700       0.69735000      -0.12353000      -0.08698000
Si       3.99794911       6.63968544       3.97172286       0.62732400       0.62235500       0.12518300      -0.06423000       0.04785000      -0.20852000
Si       5.31918156       5.38111798       5.35919404       0.50264400       0.51015300       0.49854100      -0.53691000      -0.97336000      -0.11358000
Si       6.71149588       6.60165365       6.65710490       0.62639100       0.61612700       0.63685700      -0.18267000       0.31039000       0.21354000
16
Lattice="5.313383 5.313478 7.3e-05 -0.000121 5.313671 5.313509 5.313411 4.6e-05 5.313343" Properties=species:S:1:pos:R:3:frac_pos:R:3:dft_force:R:3 opt_strategy_bias=3 num_dump_cycles=0 fix_occupancy=F castep_run_time=748.34 dft_virial="16.04256907 -1.37275697 -0.68686162 -1.37275697 16.17743622 0.19182067 -0.68686162 0.19182067 16.10341012" cutoff_factor=1.2 finite_basis_corr=automatic spin_polarized=F standardized_energy=-0.7882892756078068 elec_energy_tol=1e-07 nextra_bands=570 cutoff=-1.0 energy_per_atom=-163.1266505625 mixing_scheme=pulay smearing_width=0.05 mix_charge_amp=0.05 dft_energy=-2610.026409 centered_energy=-1.270643513633786 in_file=md_sample_dia.xyz@240 nneightol=1.2 xc_functional=PW91 max_scf_cycles=250 fine_grid_scale=4 cut_off_energy="250 eV" task=SinglePoint popn_calculate=F castep_file_name=md_sample_dia.xyz-00240/eval.castep calculate_stress=T config_type=dia mix_history_length=20 kpoints_mp_grid="6 6 6" pbc="T T T"
Si       0.04876164      -0.00119627      -0.00227458       0.00469000      -0.00491500       0.00448700      -0.09211000       0.22838000       0.29793000
Si       1.32896030       1.37664144       1.34344079       0.12818000       0.13089900       0.12193800       0.44979000      -0.62106000      -0.31354000
Si       2.60283653       0.03305983       2.73387095      -0.00922500       0.01544200       0.49908700       0.55401000       0.14487000      -0.23173000
Si       4.01942217       1.34712709       4.05110924       0.12377800       0.12974200       0.63269300      -0.64674000       0.13700000      -0.28764000
Si      -0.04986279       2.66202542       2.56280370       0.00464300       0.49633400      -0.01401600      -0.39705000       0.16985000       0.63097000
Si       1.25111230       3.96724840       3.93318201       0.12093400       0.62568100       0.11454400       0.61904000       0.07270000      -0.35802000
Si       2.58433356       2.70127009       5.31036181      -0.00233700       0.51069500       0.48872800       0.44095000      -0.27759000      -0.12335000
Si       3.92434136       4.03262352       6.63330242       0.12455000       0.63436400       0.61403800      -0.35267000       0.30681000       0.06837000
Si       2.64537950       2.65351306      -0.03436236       0.50186900      -0.00247600      -0.00399800       0.32932000       0.30348000       0.11286000
Si       4.05908515       3.95620468       1.31129703       0.63085600       0.11369900       0.13308200      -0.36172000      -0.34966000      -0.47594000
Si       5.34844558       2.60171782       2.62932656       0.50069500      -0.01105400       0.50590100      -0.44147000       0.09427000       0.47666000
Si       6.57609941       3.97887630       3.98260333       0.61846500       0.13035200       0.61918300       0.29070000      -0.04997000       0.22387000
Si       2.73128631       5.23763708       2.63785703       0.50166100       0.48404800       0.01238900      -0.22064000       0.30190000       0.67241000
Si       4.02486382       6.64266952       3.99071410       0.62829700       0.62183400       0.12921200      -0.25002000      -0.21582000      -0.21959000
Si       5.34370212       5.33713729       5.36557117       0.50016900       0.50426100       0.50554600      -0.40162000      -0.13825000      -0.23901000
Si       6.69473619       6.60954196       6.68595463       0.62278700       0.62110500       0.63720000       0.48021000      -0.10691000      -0.23426000
16
Lattice="5.313822 5.313927 8.3e-05 -0.000157 5.314167 5.313988 5.31387 3.5e-05 5.313796" Properties=species:S:1:pos:R:3:frac_pos:R:3:dft_force:R:3 opt_strategy_bias=3 num_dump_cycles=0 fix_occupancy=F castep_run_time=196.45 dft_virial="16.02263832 -0.03988588 -0.89052806 -0.03988588 15.925501 -0.40722784 -0.89052806 -0.40722784 16.10675568" cutoff_factor=1.2 finite_basis_corr=automatic spin_polarized=F standardized_energy=-0.8099370199891657 elec_energy_tol=1e-07 nextra_bands=200 cutoff=-1.0 energy_per_atom=-163.1288314375 mixing_scheme=pulay smearing_width="0.05 eV" dft_energy=-2610.061303 centered_energy=-1.3055375136336806 in_file=md_sample_dia.xyz@241 nneightol=1.2 xc_functional=PW91 max_scf_cycles=250 fine_grid_scale=4 cut_off_energy="250 eV" task=SinglePoint popn_calculate=F castep_file_name=md_sample_dia.xyz-00241/eval.castep calculate_stress=T config_type=dia mix_history_length=20 kpoints_mp_grid="6 6 6" pbc="T T T"
Si       0.01960209       0.04771975       0.00559652       0.00580800       0.00317200      -0.00211900      -0.03439000      -0.36884000      -0.15190000
Si       1.36233382       1.34784232       1.31776549       0.13101600       0.12262100       0.12536200       0.13538000       0.11168000       0.22588000
Si       2.63364836       0.01440490       2.72915104      -0.00763600       0.01034300       0.50325400       0.16047000       0.33145000      -0.38235000
Si       3.97448183       1.38394430       4.02703819       0.12526900       0.13515800       0.62268100      -0.19464000      -0.51199000       0.01304000
Si      -0.06235146       2.64123670       2.59649604      -0.00165800       0.49867600      -0.01006100      -0.04165000       0.06014000      -0.26505000
Si       1.23897355       3.96968937       3.91706737       0.12152900       0.62547700       0.11164900       0.43060000       0.34281000       0.18700000
Si       2.58563386       2.67998906       5.28165951      -0.00151500       0.50582200       0.48811200       0.06227000       0.49323000       0.39263000
Si       3.93351827       4.05927007       6.62313105       0.12886900       0.63499100       0.61138700      -0.42676000      -0.77655000       0.20984000
Si       2.68306035       2.69225827      -0.01981571       0.50765000      -0.00100800      -0.00272900       0.03203000      -0.33293000      -0.05574000
Si       4.04728716       3.95846197       1.33090946       0.62806100       0.11685500       0.13359400      -0.00732000       0.19616000      -0.57848000
Si       5.29797450       2.60169382       2.64429658       0.49449400      -0.00489800       0.50251900       0.62730000       0.12437000       0.14377000
Si       6.60852872       3.97680392       3.98125162       0.62139800       0.12696600       0.62224900      -0.08126000      -0.32160000       0.01991000
Si       2.74822793       5.24428822       2.66681024       0.50111600       0.48575700       0.01608300      -0.69414000       0.27383000       0.35205000
Si       4.03112324       6.61587036       4.00446159       0.62502000       0.61995700       0.13360800      -0.33042000       0.17965000       0.01293000
Si       5.33068704       5.29480175       5.34990228       0.49639500       0.49998000       0.50678900       0.38277000       0.44883000      -0.00366000
Si       6.70506263       6.61250839       6.68375190       0.62419500       0.62014600       0.63763300      -0.02024000      -0.25025000      -0.11987000
16
Lattice="5.314275 5.314387 6.7e-05 -0.000218 5.314672 5.314481 5.314328 1.4e-05 5.314249" Properties=species:S:1:pos:R:3:frac_pos:R:3:dft_force:R:3 opt_strategy_bias=3 num_dump_cycles=0 fix_occupancy=F castep_run_time=196.53 dft_virial="16.04168887 0.70051613 0.78579764 0.70051613 16.0882764 0.07606893 0.78579764 0.07606893 16.24475918" cutoff_factor=1.2 finite_basis_corr=automatic spin_polarized=F standardized_energy=-0.7695046119943911 elec_energy_tol=1e-07 nextra_bands=200 cutoff=-1.0 energy_per_atom=-163.124758125 mixing_scheme=pulay smearing_width="0.05 eV" dft_energy=-2609.99613 centered_energy=-1.2403645136337218 in_file=md_sample_dia.xyz@242 nneightol=1.2 xc_functional=PW91 max_scf_cycles=250 fine_grid_scale=4 cut_off_energy="250 eV" task=SinglePoint popn_calculate=F castep_file_name=md_sample_dia.xyz-00242/eval.castep calculate_stress=T config_type=dia mix_history_length=20 kpoints_mp_grid="6 6 6" pbc="T T T"
Si       0.00313381       0.06367334       0.00464115       0.00584900       0.00613200      -0.00525900      -0.03233000      -0.25499000      -0.43624000
Si       1.40951374       1.32555406       1.29696738       0.13530400       0.11411700       0.12993100      -0.54554000       0.67475000       0.17847000
Si       2.67238346       0.02467201       2.68188443       0.00142300       0.00321800       0.50144100      -0.72840000      -0.19550000       0.36390000
Si       3.91192492       1.39542039       4.00020870       0.12297800       0.13958700       0.61313800       0.62577000      -0.58856000       0.40153000
Si      -0.07076267       2.63720475       2.59878870      -0.00304200       0.49925400      -0.01025300       0.58669000      -0.15553000      -0.13638000
Si       1.27126756       3.98484871       3.93207589       0.12457400       0.62521500       0.11466800      -0.48520000      -0.01272000       0.27890000
Si       2.60048778       2.69254206       5.29775958      -0.00044800       0.50707100       0.48980400      -0.38447000       0.27046000       0.37351000
Si       3.90975460       4.03447411       6.64415226       0.12231500       0.63681000       0.61341300       0.50286000      -0.57525000      -0.27352000
Si       2.72320546       2.70514397      -0.02789299       0.51335500      -0.00433200      -0.00092300      -0.33003000      -0.61317000       0.06487000
Si       4.03206520       3.97032872       1.30806019       0.62984100       0.11724300       0.12888600       0.17755000       0.54682000       0.50434000
Si       5.28554610       2.60892476       2.68024786       0.49058000       0.00033600       0.50400900       0.77982000       0.07105000      -0.63698000
Si       6.63372547       3.95222612       3.99643331       0.61997500       0.12370100       0.62830800      -0.03837000       0.25219000      -0.43065000
Si       2.70134543       5.27755152       2.71408779       0.49534500       0.49769700       0.01299400       0.07238000      -0.26856000      -0.55738000
Si       4.01256905       6.60675387       4.01154040       0.62169900       0.62145000       0.13338000       0.20131000       0.32349000      -0.03564000
Si       5.33119907       5.28109781       5.33988483       0.49605600       0.49765200       0.50714400       0.19553000       0.16343000       0.16022000
Si       6.71469888       6.58509232       6.66529431       0.62420800       0.61486400       0.63933200      -0.59757000       0.36209000       0.18105000
16
Lattice="5.314758 5.314877 6.7e-05 -0.000252 5.315196 5.314995 5.314819 6e-06 5.314738" Properties=species:S:1:pos:R:3:frac_pos:R:3:dft_force:R:3 opt_strategy_bias=3 num_dump_cycles=0 fix_occupancy=F castep_run_time=196.48 dft_virial="15.95959103 -0.45846107 1.15295305 -0.45846107 15.98565488 0.54450159 1.15295305 0.54450159 16.03528997" cutoff_factor=1.2 finite_basis_corr=automatic spin_polarized=F standardized_energy=-0.8030929231239907 elec_energy_tol=1e-07 nextra_bands=200 cutoff=-1.0 energy_per_atom=-163.1281419375 mixing_scheme=pulay smearing_width="0.05 eV" dft_energy=-2610.050271 centered_energy=-1.2945055136337942 in_file=md_sample_dia.xyz@243 nneightol=1.2 xc_functional=PW91 max_scf_cycles=250 fine_grid_scale=4 cut_off_energy="250 eV" task=SinglePoint popn_calculate=F castep_file_name=md_sample_dia.xyz-00243/eval.castep calculate_stress=T config_type=dia mix_history_length=20 kpoints_mp_grid="6 6 6" pbc="T T T"
Si      -0.01467587       0.05282096      -0.00892173       0.00442800       0.00551000      -0.00718900       0.11860000       0.23560000       0.04698000
Si       1.40323381       1.35068121       1.29658554       0.13710100       0.11702400       0.12692900      -0.34483000       0.04914000      -0.34995000
Si       2.65075422       0.02975166       2.66473107       0.00148000       0.00411700       0.49726800      -0.08680000      -0.40643000       0.16779000
Si       3.91921730       1.36822425       4.00570282       0.12057800       0.13684600       0.61684300       0.14524000       0.27528000       0.26890000
Si      -0.03305964       2.61981138       2.55882175       0.00263000       0.49026100      -0.00882700       0.15951000       0.02455000       0.78980000
Si       1.23625671       3.99893542       3.96838264       0.11918000       0.63318600       0.11345700      -0.02135000      -0.19157000      -0.42935000
Si       2.57442155       2.72893706       5.33313724      -0.00280300       0.51622400       0.48721300      -0.21378000      -0.77041000      -0.29033000
Si       3.92620451       3.97726317       6.63950518       0.11890800       0.62938000       0.61985100       0.42052000       0.49091000       0.03171000
Si       2.75029416       2.67916814      -0.02608990       0.51324300      -0.00915400       0.00423900      -0.47300000       0.36979000       0.36727000
Si       4.04753210       4.00957753       1.33326509       0.63256000       0.12183900       0.12900900      -0.23424000      -0.05854000       0.38690000
Si       5.31960495       2.61176431       2.66874288       0.49508900      -0.00368300       0.50581700       0.13400000      -0.03801000      -0.24368000
Si       6.65598234       3.95730830       3.98010469       0.62402700       0.12053700       0.62833000       0.07032000       0.02361000      -0.07764000
Si       2.66623477       5.30277049       2.70169673       0.49553600       0.50215600       0.00615400       0.35727000      -0.48260000       0.11995000
Si       4.00804964       6.63254485       4.02065818       0.62278700       0.62509600       0.13137700       0.67754000      -0.35950000      -0.50060000
Si       5.36017999       5.27406566       5.35050200       0.49707800       0.49521300       0.51148600      -0.60869000      -0.18626000      -0.38176000
Si       6.67653262       6.55690880       6.66232466       0.61819000       0.61546200       0.63805700      -0.10032000       1.02446000       0.09400000
16
Lattice="5.315249 5.315375 0.000102 -0.000274 5.315751 5.315541 5.31535 1e-06 5.315266" Properties=species:S:1:pos:R:3:frac_pos:R:3:dft_force:R:3 opt_strategy_bias=3 num_dump_cycles=0 fix_occupancy=F castep_run_time=196.34 dft_virial="15.82088474 -0.92947057 -1.5107686 -0.92947057 16.08591588 0.98122937 -1.5107686 0.98122937 16.0327398" cutoff_factor=1.2 finite_basis_corr=automatic spin_polarized=F standardized_energy=-0.7623652114572647 elec_energy_tol=1e-07 nextra_bands=200 cutoff=-1.0 energy_per_atom=-163.124038875 mixing_scheme=pulay smearing_width="0.05 eV" dft_energy=-2609.984622 centered_energy=-1.2288565136336729 in_file=md_sample_dia.xyz@244 nneightol=1.2 xc_functional=PW91 max_scf_cycles=250 fine_grid_scale=4 cut_off_energy="250 eV" task=SinglePoint popn_calculate=F castep_file_name=md_sample_dia.xyz-00244/eval.castep calculate_stress=T config_type=dia mix_history_length=20 kpoints_mp_grid="6 6 6" pbc="T T T"
Si      -0.01402965       0.07086695      -0.01746882       0.00699000       0.00634200      -0.00962900      -0.11844000      -0.07227000       0.45706000
Si       1.36995745       1.38589182       1.28097897       0.13873900       0.12198500       0.11900600       0.47661000      -0.73183000      -0.33828000
Si       2.61707024       0.00522171       2.65477950      -0.00306000       0.00404200       0.49542100       0.69142000       0.27073000      -0.19918000
Si       3.93228891       1.35966661       4.02983467       0.11872200       0.13706700       0.62108600      -0.27482000       0.35549000      -0.59762000
Si       0.01890615       2.60595463       2.57030422       0.00513500       0.48509800      -0.00155300      -0.61084000       0.42587000       0.65544000
Si       1.19040437       3.99897499       3.96430701       0.11524400       0.63705200       0.10874700       0.88193000      -0.04093000      -0.20378000
Si       2.53542521       2.68828576       5.32766908      -0.00978000       0.51550000       0.48680700       0.33399000       0.01365000      -0.11789000
Si       3.97498648       3.96151280       6.63760628       0.12218400       0.62306500       0.62568200      -0.68086000       0.02903000       0.08424000
Si       2.74977730       2.68301829       0.00208618       0.51086000      -0.00609400       0.00647700       0.10777000       0.50606000      -0.14612000
Si       4.05011766       4.04490580       1.38537533       0.63116800       0.12980500       0.13081700       0.06738000      -0.57617000      -0.32824000
Si       5.37625873       2.60785235       2.65473122       0.50132400      -0.01069900       0.51014400      -1.10452000       0.36861000       0.53081000
Si       6.66741532       3.96908889       3.95935328       0.62810700       0.11860300       0.62628100       0.11795000      -0.30737000       0.55544000
Si       2.66636978       5.29699114       2.68682658       0.49636000       0.50014600       0.00531100      -0.19186000       0.10786000       0.53730000
Si       4.05136574       6.63932226       3.99225437       0.63011600       0.61891900       0.13212900      -0.11756000      -0.40726000       0.06472000
Si       5.34537197       5.24675376       5.35146840       0.49298100       0.49407400       0.51270200      -0.26249000       0.23325000      -0.61223000
Si       6.62007756       6.59147608       6.67460883       0.61492100       0.62511200       0.63058700       0.68433000      -0.17473000      -0.34168000
16
Lattice="5.268937 5.268938 1.7e-05 3.8e-05 5.268916 5.268917 5.268936 1.8e-05 5.268937" Properties=species:S:1:pos:R:3:frac_pos:R:3:dft_force:R:3 opt_strategy_bias=3 num_dump_cycles=0 fix_occupancy=F castep_run_time=195.97 dft_virial="21.68397095 -0.01143015 0.54601789 -0.01143015 21.75805695 0.2438292 0.54601789 0.2438292 21.67599723" cutoff_factor=1.2 finite_basis_corr=automatic spin_polarized=F standardized_energy=-0.5617262187824305 elec_energy_tol=1e-07 nextra_bands=200 cutoff=-1.0 energy_per_atom=-163.10382575 mixing_scheme=pulay smearing_width="0.05 eV" dft_energy=-2609.661212 centered_energy=-0.9054465136337058 in_file=md_sample_dia.xyz@245 nneightol=1.2 xc_functional=PW91 max_scf_cycles=250 fine_grid_scale=4 cut_off_energy="250 eV" task=SinglePoint popn_calculate=F castep_file_name=md_sample_dia.xyz-00245/eval.castep calculate_stress=T config_type=dia mix_history_length=20 kpoints_mp_grid="6 6 6" pbc="T T T"
Si      -0.01373069       0.00590640       0.02339922      -0.00296300       0.00408400       0.00035700      -0.18193000      -0.38368000      -0.15864000
Si       1.29027783       1.35798372       1.27678428       0.13014700       0.12758700       0.11473600       0.28428000       0.25975000       0.01981000
Si       2.61706994       0.03189118       2.57499815       0.00701800      -0.00096700       0.48968000      -0.18761000      -0.06539000       0.07136000
Si       3.91225839       1.28756830       3.95479510       0.11814700       0.12622100       0.62436600       0.42422000      -0.03926000      -0.11007000
Si      -0.01674139       2.61219148       2.66742607      -0.00683200       0.50260600       0.00365100       0.12998000       0.19896000      -0.18400000
Si       1.31290577       3.94108565       3.96884269       0.12195300       0.62603400       0.12722100      -0.19380000       0.32207000      -0.11554000
Si       2.66417735       2.64997354       5.25288851       0.00581100       0.49713200       0.49982400      -0.17900000       0.01161000       0.21370000
Si       3.95667870       3.95134273       6.60001815       0.12412100       0.62581100       0.62681900       0.17380000      -0.11417000       0.07906000
Si       2.68066625       2.63592868      -0.03534051       0.50787700      -0.00760000       0.00089100       0.01186000       0.00028000       0.15170000
Si       3.93638557       3.95941662       1.36725489       0.61953200       0.13193200       0.12756000      -0.02001000      -0.04156000      -0.26458000
Si       5.25672849       2.62270718       2.66803470       0.49454000       0.00322600       0.50314300      -0.03977000       0.02725000      -0.06371000
Si       6.62010185       3.95726031       3.92086674       0.63167300       0.11938000       0.62476600       0.02656000      -0.09365000       0.10739000
Si       2.58293125       5.30456577       2.62677946       0.49921900       0.50754500      -0.00900400       0.19708000      -0.43683000       0.21119000
Si       3.98397189       6.51532579       3.95139541       0.62136700       0.61518900       0.13475300      -0.20106000       0.09337000       0.30770000
Si       5.31680251       5.23184826       5.29843108       0.49822200       0.49473900       0.51085900      -0.04798000       0.03539000      -0.21475000
Si       6.58910291       6.62438548       6.57280213       0.63017100       0.62708200       0.62038100      -0.19661000       0.22586000      -0.05064000
16
Lattice="5.269022 5.269024 4.4e-05 8e-05 5.268988 5.268988 5.269026 4e-05 5.269028" Properties=species:S:1:pos:R:3:frac_pos:R:3:dft_force:R:3 opt_strategy_bias=3 num_dump_cycles=0 fix_occupancy=F castep_run_time=200.38 dft_virial="21.57128887 0.05025076 -0.20418207 0.05025076 21.62815696 0.32023723 -0.20418207 0.32023723 21.56962359" cutoff_factor=1.2 finite_basis_corr=automatic spin_polarized=F standardized_energy=-0.535321355586348 elec_energy_tol=1e-07 nextra_bands=200 cutoff=-1.0 energy_per_atom=-163.101165625 mixing_scheme=pulay smearing_width="0.05 eV" dft_energy=-2609.61865 centered_energy=-0.8628845136336167 in_file=md_sample_dia.xyz@246 nneightol=1.2 xc_functional=PW91 max_scf_cycles=250 fine_grid_scale=4 cut_off_energy="250 eV" task=SinglePoint popn_calculate=F castep_file_name=md_sample_dia.xyz-00246/eval.castep calculate_stress=T config_type=dia mix_history_length=20 kpoints_mp_grid="6 6 6" pbc="T T T"
Si      -0.04064493      -0.01676620       0.01680773      -0.00704300       0.00386100      -0.00067100       0.34169000       0.15259000      -0.09541000
Si       1.28259092       1.40969004       1.24720082       0.13712900       0.13041400       0.10629000       0.28346000      -0.50337000       0.10470000
Si       2.61178222       0.02282925       2.56560076       0.00654700      -0.00221800       0.48913900      -0.48759000       0.40768000      -0.19156000
Si       3.91890006       1.27439725       3.93081120       0.11980000       0.12206200       0.62396000       0.07692000       0.11411000       0.19527000
Si      -0.01190979       2.61936667       2.68177251      -0.00705600       0.50418500       0.00478800      -0.30389000      -0.36110000      -0.33329000
Si       1.28497004       3.92412497       3.95146671       0.11933700       0.62542000       0.12452600       0.31657000       0.68598000       0.28839000
Si       2.65470155       2.65244977       5.24720510       0.00568300       0.49772100       0.49814100       0.15800000       0.00188000       0.18085000
Si       3.97130402       3.95575401       6.62293780       0.12374700       0.62700900       0.62995100      -0.14148000      -0.37840000      -0.23711000
Si       2.71780280       2.64450785      -0.04659205       0.51327600      -0.01137900       0.00253200      -0.23469000       0.00652000       0.29366000
Si       3.94159255       3.96015140       1.37222441       0.61961500       0.13197600       0.12845200      -0.11254000      -0.04149000      -0.27325000
Si       5.23958650       2.63813052       2.67054402       0.49413100       0.00655200       0.50028200       0.42396000      -0.01923000       0.17357000
Si       6.64649334       3.95874926       3.93661403       0.63281400       0.11850700       0.62861200      -0.31152000      -0.12700000      -0.08922000
Si       2.58980155       5.28664097       2.62259720       0.49855800       0.50478900      -0.00705100      -0.19687000      -0.13065000       0.25359000
Si       3.97197564       6.50023065       3.96841309       0.61717000       0.61650200       0.13665600       0.27219000      -0.10951000       0.06625000
Si       5.33067956       5.21782773       5.32331683       0.49583700       0.49444600       0.51585700      -0.06794000       0.22272000      -0.41193000
Si       6.58105610       6.64220221       6.57941672       0.63045800       0.63015500       0.61854100      -0.01628000       0.07927000       0.07548000
16
Lattice="5.269128 5.269132 7.4e-05 0.000118 5.269088 5.269086 5.269135 6.7e-05 5.269138" Properties=species:S:1:pos:R:3:frac_pos:R:3:dft_force:R:3 opt_strategy_bias=3 num_dump_cycles=0 fix_occupancy=F castep_run_time=195.84 dft_virial="21.39289664 -0.16473484 -0.97073819 -0.16473484 21.31465521 -0.06389768 -0.97073819 -0.06389768 21.42612738" cutoff_factor=1.2 finite_basis_corr=automatic spin_polarized=F standardized_energy=-0.5294853857520991 elec_energy_tol=1e-07 nextra_bands=200 cutoff=-1.0 energy_per_atom=-163.1005776875 mixing_scheme=pulay smearing_width="0.05 eV" dft_energy=-2609.609243 centered_energy=-0.8534775136336066 in_file=md_sample_dia.xyz@247 nneightol=1.2 xc_functional=PW91 max_scf_cycles=250 fine_grid_scale=4 cut_off_energy="250 eV" task=SinglePoint popn_calculate=F castep_file_name=md_sample_dia.xyz-00247/eval.castep calculate_stress=T config_type=dia mix_history_length=20 kpoints_mp_grid="6 6 6" pbc="T T T"
Si      -0.04323319      -0.03098265      -0.01035431      -0.00606000       0.00018000      -0.00214500       0.13252000       0.83482000       0.41740000
Si       1.30409336       1.41748231       1.23074801       0.14146700       0.12754900       0.10602700      -0.45149000      -0.42355000       0.01437000
Si       2.57341382       0.03289060       2.53546757       0.00671900      -0.00048300       0.48167500       0.12280000       0.16093000       0.04141000
Si       3.91117118       1.27238945       3.91591004       0.12028600       0.12118700       0.62199100      -0.18203000      -0.00537000       0.23529000
Si      -0.02935274       2.60563236       2.67879755      -0.00973400       0.50424700       0.00415200       0.22362000      -0.16908000       0.05167000
Si       1.27974645       3.97489227       3.97012935       0.12188300       0.63249400       0.12097900       0.43660000      -0.63920000      -0.15791000
Si       2.66392265       2.64970005       5.26481282       0.00462300       0.49824700       0.50093700      -0.15983000       0.08539000      -0.16899000
Si       3.97332220       3.94449751       6.62416295       0.12274800       0.62585400       0.63131300      -0.15716000      -0.05511000      -0.18805000
Si       2.73241032       2.64742349      -0.04136619       0.51443400      -0.01199400       0.00413600      -0.03410000      -0.05284000       0.07850000
Si       3.94863772       3.96890795       1.36721712       0.62157800       0.13165900       0.12781000       0.03492000      -0.22026000       0.02251000
Si       5.24946815       2.63963667       2.69988961       0.49241700       0.00853900       0.50385100       0.18565000       0.17579000      -0.12548000
Si       6.66111291       3.95952103       3.94102406       0.63384300       0.11760600       0.63033100      -0.25699000      -0.10753000      -0.09444000
Si       2.59276034       5.27764547       2.63687156       0.49662000       0.50500000      -0.00456500      -0.36184000       0.11226000      -0.22121000
Si       3.97330681       6.46257813       3.97908729       0.61269700       0.61380400       0.14136200       0.24568000       0.39385000      -0.02832000
Si       5.33922694       5.21474112       5.31166589       0.49744900       0.49222600       0.51584300      -0.04788000       0.05356000       0.00253000
Si       6.56192444       6.65451613       6.58746884       0.62903200       0.63389000       0.61630600       0.26955000      -0.14367000       0.12072000
16
Lattice="5.269251 5.269257 8.7e-05 0.000141 5.269204 5.269202 5.269249 9e-05 5.269253" Properties=species:S:1:pos:R:3:frac_pos:R:3:dft_force:R:3 opt_strategy_bias=3 num_dump_cycles=0 fix_occupancy=F castep_run_time=196.1 dft_virial="21.45700567 0.03187959 0.04514495 0.03187959 21.41096407 -0.68883435 0.04514495 -0.68883435 21.35947133" cutoff_factor=1.2 finite_basis_corr=automatic spin_polarized=F standardized_energy=-0.4957494227868059 elec_energy_tol=1e-07 nextra_bands=200 cutoff=-1.0 energy_per_atom=-163.097179 mixing_scheme=pulay smearing_width="0.05 eV" dft_energy=-2609.554864 centered_energy=-0.7990985136339077 in_file=md_sample_dia.xyz@248 nneightol=1.2 xc_functional=PW91 max_scf_cycles=250 fine_grid_scale=4 cut_off_energy="250 eV" task=SinglePoint popn_calculate=F castep_file_name=md_sample_dia.xyz-00248/eval.castep calculate_stress=T config_type=dia mix_history_length=20 kpoints_mp_grid="6 6 6" pbc="T T T"
Si      -0.04237968       0.02612931      -0.00202383      -0.00135000       0.00630900      -0.00669300       0.02169000      -0.39033000      -0.08184000
Si       1.30398273       1.38842595       1.20164869       0.14145700       0.12203800       0.10601000      -0.52672000       0.54487000       0.29055000
Si       2.54275005       0.05291429       2.50195796       0.00888800       0.00114600       0.47367600       0.66024000      -0.48685000       0.40681000
Si       3.88505600       1.26227353       3.92336840       0.11613600       0.12340900       0.62116800      -0.10952000       0.30268000      -0.14442000
Si      -0.03745153       2.58892303       2.66615223      -0.01088900       0.50222000       0.00376800       0.50902000       0.35732000      -0.04653000
Si       1.30989274       3.97321893       3.98273818       0.12338400       0.63065800       0.12519100      -0.36346000      -0.69611000      -0.00951000
Si       2.66085155       2.63429441       5.29594787      -0.00008700       0.50002000       0.50505100      -0.37573000      -0.04733000      -0.53916000
Si       3.96055571       3.94337192       6.57886286       0.12572300       0.62264600       0.62589600       0.08849000       0.09537000       0.56580000
Si       2.74343356       2.63589971      -0.03856238       0.51410900      -0.01386800       0.00654100      -0.08608000       0.26145000       0.06799000
Si       3.96190472       3.96908307       1.36677585       0.62288100       0.13037100       0.12900700       0.07517000      -0.07715000       0.15430000
Si       5.27697580       2.63827803       2.72094773       0.49288800       0.00779600       0.50857800      -0.55745000       0.15135000      -0.09885000
Si       6.66041707       3.96089298       3.93803595       0.63417500       0.11751400       0.62983800       0.14331000      -0.01801000      -0.00510000
Si       2.57975989       5.28080094       2.64943969       0.49448100       0.50771500      -0.00490700       0.25336000      -0.08727000      -0.20348000
Si       3.98868796       6.46957935       3.98759782       0.61399800       0.61380300       0.14296000      -0.07423000       0.30889000      -0.37816000
Si       5.33070067       5.21350734       5.28855156       0.49870300       0.49071300       0.51294600       0.37526000       0.24497000       0.46911000
Si       6.56812044       6.65520961       6.63131884       0.62550800       0.63751400       0.62097500      -0.03336000      -0.46385000      -0.44752000
16
Lattice="5.269395 5.269403 9.3e-05 0.000164 5.269331 5.269329 5.269382 0.000106 5.269387" Properties=species:S:1:pos:R:3:frac_pos:R:3:dft_force:R:3 opt_strategy_bias=3 num_dump_cycles=0 fix_occupancy=F castep_run_time=195.48 dft_virial="21.33898582 0.26362065 0.52466986 0.26362065 21.52086081 0.96000026 0.52466986 0.96000026 21.30830015" cutoff_factor=1.2 finite_basis_corr=automatic spin_polarized=F standardized_energy=-0.5210487583708729 elec_energy_tol=1e-07 nextra_bands=200 cutoff=-1.0 energy_per_atom=-163.09972775 mixing_scheme=pulay smearing_width="0.05 eV" dft_energy=-2609.595644 centered_energy=-0.839878513633721 in_file=md_sample_dia.xyz@249 nneightol=1.2 xc_functional=PW91 max_scf_cycles=250 fine_grid_scale=4 cut_off_energy="250 eV" task=SinglePoint popn_calculate=F castep_file_name=md_sample_dia.xyz-00249/eval.castep calculate_stress=T config_type=dia mix_history_length=20 kpoints_mp_grid="6 6 6" pbc="T T T"
Si      -0.03735325       0.04542615       0.00674433       0.00012600       0.00849500      -0.00721500      -0.21860000      -0.76891000      -0.50064000
Si       1.27540787       1.39767408       1.20441891       0.13935600       0.12588700       0.10268100       0.43623000       0.36560000       0.36742000
Si       2.56645763       0.03885468       2.51102718       0.00894200      -0.00157800       0.47810900       0.00888000      -0.00350000       0.08586000
Si       3.85859601       1.28693389       3.92333598       0.11596400       0.12825300       0.61629900       0.36248000      -0.31070000      -0.08959000
Si      -0.00660492       2.60998398       2.65167893      -0.00459100       0.49990700       0.00332200      -0.17575000       0.41078000      -0.16263000
Si       1.31564242       3.92801887       3.99148266       0.11880600       0.62663900       0.13085100      -0.47186000       0.25665000      -0.02494000
Si       2.64533762       2.61064847       5.27386333      -0.00170900       0.49714100       0.50371400      -0.48510000       0.00337000       0.34738000
Si       3.92848640       3.95151449       6.56612158       0.12465600       0.62523800       0.62085500       0.66242000      -0.09678000       0.25531000
Si       2.75715593       2.64527371      -0.03016594       0.51549000      -0.01348400       0.00775000      -0.28075000       0.05216000       0.03880000
Si       3.96893865       3.97057336       1.37981819       0.62243500       0.13107900       0.13076700       0.10812000       0.08495000      -0.06193000
Si       5.25311819       2.63172995       2.72986137       0.48914300       0.01028300       0.50776900      -0.08917000       0.18438000      -0.23954000
Si       6.67290359       3.95067761       3.92431781       0.63567400       0.11405400       0.63067500      -0.09726000       0.04647000       0.30189000
Si       2.58997500       5.27207475       2.66017695       0.49358900       0.50692500      -0.00209200       0.15992000      -0.22080000       0.04735000
Si       4.00341087       6.49778742       3.96300692       0.62038700       0.61273500       0.13934200      -0.01295000       0.19940000      -0.12564000
Si       5.34463166       5.23842723       5.29014548       0.50222300       0.49189500       0.51204100      -0.00636000      -0.26416000       0.10001000
Si       6.55864875       6.61865407       6.64824819       0.61951500       0.63653500       0.62513500       0.09976000       0.06109000      -0.33911000
16
Lattice="5.269564 5.269576 0.000118 0.000201 5.269493 5.269486 5.269543 0.000139 5.269547" Properties=species:S:1:pos:R:3:frac_pos:R:3:dft_force:R:3 opt_strategy_bias=3 num_dump_cycles=0 fix_occupancy=F castep_run_time=195.75 dft_virial="21.37353771 0.00952319 -0.3573496 0.00952319 21.60940003 0.13428532 -0.3573496 0.13428532 21.7206445" cutoff_factor=1.2 finite_basis_corr=automatic spin_polarized=F standardized_energy=-0.5001312081529535 elec_energy_tol=1e-07 nextra_bands=200 cutoff=-1.0 energy_per_atom=-163.0976204375 mixing_scheme=pulay smearing_width="0.05 eV" dft_energy=-2609.561927 centered_energy=-0.8061615136339242 in_file=md_sample_dia.xyz@250 nneightol=1.2 xc_functional=PW91 max_scf_cycles=250 fine_grid_scale=4 cut_off_energy="250 eV" task=SinglePoint popn_calculate=F castep_file_name=md_sample_dia.xyz-00250/eval.castep calculate_stress=T config_type=dia mix_history_length=20 kpoints_mp_grid="6 6 6" pbc="T T T"
Si      -0.04497457       0.01483257      -0.00570224      -0.00231900       0.00513400      -0.00621600       0.09701000       0.26546000      -0.01017000
Si       1.27813052       1.41499554       1.24345271       0.13754900       0.13097200       0.10499600       0.54751000      -0.32722000      -0.30645000
Si       2.58509002       0.02637312       2.53922700       0.00684800      -0.00185600       0.48372400      -0.07164000       0.17906000      -0.20463000
Si       3.86577057       1.30565441       3.92732035       0.11803700       0.12972100       0.61556400       0.29270000      -0.68469000      -0.03773000
Si       0.01227336       2.65712089       2.63175028       0.00356200       0.50068400      -0.00125200      -0.52157000      -0.02169000      -0.16501000
Si       1.27887314       3.91366932       4.00163202       0.11298600       0.62971200       0.12968100       0.15503000       0.56584000      -0.09973000
Si       2.59575012       2.57722512       5.25519841      -0.00781800       0.49688900       0.50039400       0.12026000       0.49995000       0.70950000
Si       3.93317785       3.94193575       6.56386666       0.12439800       0.62365100       0.62197600       0.10672000      -0.02228000      -0.24016000
Si       2.74471861       2.66310297      -0.03413776       0.51636300      -0.01099000       0.00450000       0.02158000      -0.38639000       0.00201000
Si       3.98091039       3.98152504       1.37749372       0.62481100       0.13075600       0.13063800      -0.26513000      -0.16936000      -0.25262000
Si       5.22089104       2.62324821       2.70411444       0.48770700       0.01009000       0.50305800       0.68814000       0.35637000      -0.05655000
Si       6.67034517       3.95454180       3.92709249       0.63551300       0.11492000       0.63031000      -0.57055000      -0.07453000       0.24711000
Si       2.61151790       5.24016225       2.68029794       0.49067900       0.50374700       0.00488700      -0.08932000       0.19008000       0.08631000
Si       4.04551081       6.52071070       3.92749388       0.62990500       0.60752700       0.13778500      -0.39946000       0.21800000       0.35836000
Si       5.35464042       5.26357778       5.31720227       0.50297300       0.49588300       0.51315500      -0.37113000      -0.69831000      -0.55343000
Si       6.56396206       6.59741726       6.63948972       0.61881200       0.63316400       0.62680300       0.25986000       0.10970000       0.52319000
16
Lattice="5.269751 5.269771 0.000139 0.00023 5.26968 5.269669 5.269716 0.000175 5.269725" Properties=species:S:1:pos:R:3:frac_pos:R:3:dft_force:R:3 opt_strategy_bias=3 num_dump_cycles=0 fix_occupancy=F castep_run_time=195.41 dft_virial="21.41975935 -0.73936755 -1.14776058 -0.73936755 21.50048773 -1.39860768 -1.14776058 -1.39860768 21.66520506" cutoff_factor=1.2 finite_basis_corr=automatic spin_polarized=F standardized_energy=-0.5169728232362886 elec_energy_tol=1e-07 nextra_bands=200 cutoff=-1.0 energy_per_atom=-163.099317125 mixing_scheme=pulay smearing_width="0.05 eV" dft_energy=-2609.589074 centered_energy=-0.8333085136337104 in_file=md_sample_dia.xyz@251 nneightol=1.2 xc_functional=PW91 max_scf_cycles=250 fine_grid_scale=4 cut_off_energy="250 eV" task=SinglePoint popn_calculate=F castep_file_name=md_sample_dia.xyz-00251/eval.castep calculate_stress=T config_type=dia mix_history_length=20 kpoints_mp_grid="6 6 6" pbc="T T T"
Si      -0.06336181       0.01771477      -0.01962513      -0.00246900       0.00583100      -0.00955500       0.59026000       0.47456000       0.57496000
Si       1.32455622       1.41215885       1.25301604       0.14077200       0.12720000       0.11057400      -0.26755000      -0.40292000      -0.32653000
Si       2.58640250       0.01365486       2.54307534       0.00539900      -0.00282400       0.48540600       0.01377000      -0.02015000       0.06692000
Si       3.88396642       1.27482843       3.92998038       0.11658000       0.12531500       0.62044900      -0.09992000       0.41954000      -0.26722000
Si      -0.01487653       2.68166535       2.59986007       0.00633900       0.50254700      -0.00918400       0.44587000      -0.22657000       0.06268000
Si       1.26027597       3.93439133       4.01342895       0.11206200       0.63454100       0.12706400       0.16399000       0.04205000      -0.27985000
Si       2.57217393       2.58496985       5.28231620      -0.01189600       0.50241600       0.49997900       0.50984000       0.15673000      -0.07223000
Si       3.94051945       3.93728264       6.54990310       0.12597000       0.62116500       0.62176900      -0.58403000       0.08263000      -0.18124000
Si       2.74200630       2.64668656      -0.04555813       0.51561400      -0.01337500       0.00471600      -0.00226000      -0.02827000      -0.05979000
Si       3.96917552       3.98545385       1.35146391       0.62651800       0.12976600       0.12667700      -0.27281000      -0.27583000       0.03045000
Si       5.24923021       2.63917795       2.67205618       0.49493100       0.00586700       0.50117800      -0.09649000       0.10379000       0.32980000
Si       6.63426386       3.95790780       3.94526054       0.63066100       0.12037900       0.62827100      -0.01299000      -0.21171000      -0.05275000
Si       2.62936816       5.22300013       2.71702540       0.48724100       0.50389200       0.01169200       0.00343000       0.56299000      -0.12641000
Si       4.07810554       6.55835155       3.92987803       0.63631900       0.60821000       0.13752600      -0.64926000      -0.30728000       0.24184000
Si       5.32723964       5.22730989       5.31268834       0.49734000       0.49459400       0.51355100       0.17734000       0.40114000      -0.15031000
Si       6.57950813       6.60364469       6.66296954       0.61862500       0.63448300       0.62989400       0.08081000      -0.77070000       0.20968000
16
Lattice="5.269947 5.269978 0.000124 0.000232 5.26987 5.269857 5.269891 0.00018 5.269909" Properties=species:S:1:pos:R:3:frac_pos:R:3:dft_force:R:3 opt_strategy_bias=3 num_dump_cycles=0 fix_occupancy=F castep_run_time=748.31 dft_virial="21.59632196 -0.17927692 0.24117207 -0.17927692 21.50638847 0.50214709 0.24117207 0.50214709 21.46257902" cutoff_factor=1.2 finite_basis_corr=automatic spin_polarized=F standardized_energy=-0.513799549535666 elec_energy_tol=1e-07 nextra_bands=570 cutoff=-1.0 energy_per_atom=-163.0989974375 mixing_scheme=pulay smearing_width=0.05 mix_charge_amp=0.05 dft_energy=-2609.583959 centered_energy=-0.8281935136337779 in_file=md_sample_dia.xyz@252 nneightol=1.2 xc_functional=PW91 max_scf_cycles=250 fine_grid_scale=4 cut_off_energy="250 eV" task=SinglePoint popn_calculate=F castep_file_name=md_sample_dia.xyz-00252/eval.castep calculate_stress=T config_type=dia mix_history_length=20 kpoints_mp_grid="6 6 6" pbc="T T T"
Si      -0.04443304       0.06327904       0.01267888       0.00058500       0.01142300      -0.00901700      -0.28072000      -0.27764000       0.04163000
Si       1.33483067       1.36742985       1.24048953       0.13868600       0.12078800       0.11460100      -0.18780000       0.35652000       0.18487000
Si       2.57175386       0.00469347       2.54139834       0.00331800      -0.00244400       0.48469100       0.32898000      -0.29909000       0.48982000
Si       3.89929077       1.28175161       3.90855782       0.12071900       0.12248000       0.61919300      -0.10308000       0.66823000      -0.16673000
Si       0.01433973       2.68174702       2.59033583       0.01002200       0.49886100      -0.00732300       0.21640000      -0.15549000       0.11665000
Si       1.26016986       3.97981940       4.01344377       0.11635600       0.63884000       0.12274100       0.06764000      -0.56923000       0.17298000
Si       2.59137965       2.60045390       5.29931398      -0.01021700       0.50365700       0.50192800      -0.14316000      -0.40089000      -0.49941000
Si       3.92534500       3.92960364       6.53833822       0.12489400       0.62075600       0.61994000      -0.05402000       0.25215000       0.19354000
Si       2.72477535       2.63119686      -0.04525172       0.51246000      -0.01318000       0.00458100      -0.18637000       0.11133000      -0.02442000
Si       3.91631151       3.98621329       1.33323613       0.62327900       0.13312000       0.11985700       0.38759000      -0.02480000       0.24156000
Si       5.27732417       2.66755727       2.64754848       0.50259500       0.00356800       0.49881000      -0.58871000      -0.44427000      -0.09132000
Si       6.60480733       3.93990907       3.95955924       0.62477700       0.12281800       0.62852100       0.62325000      -0.12497000      -0.44708000
Si       2.63841591       5.23869588       2.75573775       0.48589600       0.50817800       0.01473500       0.23132000       0.34513000      -0.36602000
Si       4.06300568       6.58082740       3.95025468       0.63506000       0.61368700       0.13589100      -0.03373000      -0.19064000      -0.11730000
Si       5.32407514       5.20485402       5.27523636       0.49844300       0.48919200       0.51181200      -0.15191000       0.76637000       0.55751000
Si       6.59901113       6.54218205       6.67862538       0.61313400       0.62826300       0.63904200      -0.12569000      -0.01271000      -0.28627000
16
Lattice="5.270163 5.270203 0.000117 0.000234 5.270087 5.27007 5.270093 0.000187 5.270117" Properties=species:S:1:pos:R:3:frac_pos:R:3:dft_force:R:3 opt_strategy_bias=3 num_dump_cycles=0 fix_occupancy=F castep_run_time=504.86 dft_virial="21.71048491 0.32585641 1.34228539 0.32585641 21.42425016 0.92423547 1.34228539 0.92423547 21.47928125" cutoff_factor=1.2 finite_basis_corr=automatic spin_polarized=F standardized_energy=-0.502668586341696 elec_energy_tol=1e-07 nextra_bands=360 cutoff=-1.0 energy_per_atom=-163.0978760625 mixing_scheme=pulay smearing_width=0.05 mix_charge_amp=0.05 dft_energy=-2609.566017 centered_energy=-0.8102515136338297 in_file=md_sample_dia.xyz@253 nneightol=1.2 xc_functional=PW91 max_scf_cycles=250 fine_grid_scale=4 cut_off_energy="250 eV" task=SinglePoint popn_calculate=F castep_file_name=md_sample_dia.xyz-00253/eval.castep calculate_stress=T config_type=dia mix_history_length=20 kpoints_mp_grid="6 6 6" pbc="T T T"
Si      -0.03718762       0.07943993       0.03582038       0.00061000       0.01446400      -0.00766700      -0.73180000      -0.57556000      -0.72504000
Si       1.33115179       1.32705618       1.24743100       0.13384200       0.11796000       0.11873700       0.29435000       0.61118000       0.66990000
Si       2.60268175      -0.02110401       2.57095842       0.00100000      -0.00502200       0.49285900      -0.02470000       0.17185000       0.38815000
Si       3.91129008       1.32733783       3.88425411       0.12848300       0.12335500       0.61367700       0.13686000      -0.00995000       0.17997000
Si       0.03930525       2.67433784       2.59131566       0.01159400       0.49586200      -0.00415800      -0.12358000       0.00445000       0.12502000
Si       1.28007336       3.97903712       4.02632146       0.11694300       0.63807300       0.12592100      -0.14213000      -0.43172000       0.15944000
Si       2.61206379       2.58446488       5.28373165      -0.00829300       0.49867800       0.50391000      -0.42621000      -0.26553000       0.04463000
Si       3.91197098       3.94626046       6.54946523       0.12414400       0.62463500       0.61812300       0.54701000      -0.19240000      -0.09379000
Si       2.69498483       2.62529013      -0.03834338       0.50839600      -0.01025800       0.00297100      -0.07709000       0.13044000       0.25356000
Si       3.89670848       4.00229295       1.33003324       0.62322200       0.13619600       0.11616400       0.25736000       0.02346000       0.14912000
Si       5.25645811       2.66713094       2.60919897       0.50419200       0.00186800       0.49321400       0.06257000      -0.34007000      -0.22084000
Si       6.61798006       3.91544874       3.94378575       0.62517600       0.11774500       0.63057200      -0.16314000       0.19298000      -0.18408000
Si       2.63232331       5.27875177       2.76301307       0.48840700       0.51322600       0.01104700       0.36826000      -0.47315000      -0.13112000
Si       4.03094592       6.59446312       3.95860898       0.63249200       0.61879000       0.13234400       0.49011000       0.17904000      -0.20314000
Si       5.31818028       5.24269334       5.27364660       0.50160300       0.49317000       0.50749300      -0.22105000      -0.22557000       0.04892000
Si       6.60357759       6.47955229       6.67234210       0.60819500       0.62126500       0.64479800      -0.24684000       1.20055000      -0.46069000
16
Lattice="5.270408 5.270455 0.000144 0.000261 5.270338 5.270318 5.270338 0.000213 5.270366" Properties=species:S:1:pos:R:3:frac_pos:R:3:dft_force:R:3 opt_strategy_bias=3 num_dump_cycles=0 fix_occupancy=F castep_run_time=195.9 dft_virial="21.38557069 0.2430061 -1.30014639 0.2430061 21.28312827 -0.5078284 -1.30014639 -0.5078284 21.45237333" cutoff_factor=1.2 finite_basis_corr=automatic spin_polarized=F standardized_energy=-0.5363611222966738 elec_energy_tol=1e-07 nextra_bands=200 cutoff=-1.0 energy_per_atom=-163.101270375 mixing_scheme=pulay smearing_width="0.05 eV" dft_energy=-2609.620326 centered_energy=-0.8645605136339327 in_file=md_sample_dia.xyz@254 nneightol=1.2 xc_functional=PW91 max_scf_cycles=250 fine_grid_scale=4 cut_off_energy="250 eV" task=SinglePoint popn_calculate=F castep_file_name=md_sample_dia.xyz-00254/eval.castep calculate_stress=T config_type=dia mix_history_length=20 kpoints_mp_grid="6 6 6" pbc="T T T"
Si      -0.08177670       0.05244210       0.00014656      -0.00279700       0.01274800      -0.01272000       0.37756000       0.20786000       0.00651000
Si       1.33928666       1.33079672       1.29972199       0.13000100       0.12249800       0.12410900      -0.20665000      -0.39873000       0.13245000
Si       2.64709400      -0.04354176       2.62460539      -0.00200600      -0.00627600       0.50426900      -0.24552000       0.62392000      -0.20359000
Si       3.92995409       1.37646821       3.87536108       0.13575100       0.12539400       0.60991500       0.18996000      -0.61901000       0.06384000
Si       0.03084642       2.68135326       2.60739093       0.00993000       0.49883300      -0.00410200       0.07862000      -0.00244000      -0.10723000
Si       1.28227310       3.93643556       4.05121562       0.11074100       0.63615500       0.13252600      -0.10939000       0.13443000      -0.09515000
Si       2.61349371       2.54309222       5.27557941      -0.01131100       0.49382000       0.50717400       0.06135000       0.67929000       0.31255000
Si       3.93249201       3.95167233       6.55480566       0.12608900       0.62367800       0.62003400       0.22370000      -0.34963000      -0.34510000
Si       2.66599213       2.62149926      -0.01086337       0.50265600      -0.00526100       0.00318600       0.14269000       0.24038000       0.02958000
Si       3.90413524       4.01444584       1.34377882       0.62374700       0.13794000       0.11701300      -0.21954000      -0.15134000      -0.18515000
Si       5.25647436       2.64858236       2.55669095       0.50739200      -0.00487800       0.48997100       0.37695000       0.28411000       0.17650000
Si       6.61543417       3.91976278       3.92289721       0.62729600       0.11640500       0.62791000      -0.44870000      -0.15801000       0.23914000
Si       2.62241426       5.27434469       2.76073174       0.48724200       0.51350700       0.01030600       0.03152000      -0.30987000      -0.04869000
Si       4.02317118       6.61817562       3.93544943       0.63617100       0.61955000       0.12715100       0.11221000      -0.05058000       0.32806000
Si       5.31465739       5.26215100       5.27394054       0.50306200       0.49535300       0.50531600      -0.26397000      -0.31036000      -0.39338000
Si       6.60919313       6.51743942       6.63278291       0.61604500       0.62054200       0.63795200      -0.10077000       0.17999000       0.08968000
16
Lattice="5.270675 5.270728 0.000148 0.000273 5.270602 5.270582 5.270586 0.000237 5.270619" Properties=species:S:1:pos:R:3:frac_pos:R:3:dft_force:R:3 opt_strategy_bias=3 num_dump_cycles=0 fix_occupancy=F castep_run_time=504.44 dft_virial="21.33655068 -0.76385337 -1.24305161 -0.76385337 21.58994156 0.41467402 -1.24305161 0.41467402 21.41925923" cutoff_factor=1.2 finite_basis_corr=automatic spin_polarized=F standardized_energy=-0.4889189744104906 elec_energy_tol=1e-07 nextra_bands=360 cutoff=-1.0 energy_per_atom=-163.096490875 mixing_scheme=pulay smearing_width=0.05 mix_charge_amp=0.05 dft_energy=-2609.543854 centered_energy=-0.7880885136337383 in_file=md_sample_dia.xyz@255 nneightol=1.2 xc_functional=PW91 max_scf_cycles=250 fine_grid_scale=4 cut_off_energy="250 eV" task=SinglePoint popn_calculate=F castep_file_name=md_sample_dia.xyz-00255/eval.castep calculate_stress=T config_type=dia mix_history_length=20 kpoints_mp_grid="6 6 6" pbc="T T T"
Si      -0.10261021       0.03579918      -0.01079546      -0.00531400       0.01210700      -0.01415500       0.73043000       0.36801000       0.48829000
Si       1.33986498       1.30516370       1.35752987       0.12213300       0.12548900       0.13207400      -0.10294000      -0.28478000      -0.75810000
Si       2.66517039      -0.03858192       2.65163771      -0.00238600      -0.00495700       0.50805500      -0.25328000      -0.10788000      -0.37675000
Si       3.94378798       1.36470529       3.87481655       0.13599100       0.12290600       0.61226400       0.32756000      -0.02031000      -0.01507000
Si       0.03322031       2.67729227       2.60530273       0.00996700       0.49800000      -0.00369000      -0.04189000      -0.21895000       0.09045000
Si       1.25743412       3.91030980       4.06347052       0.10473700       0.63716400       0.13380400       0.13661000       0.57839000      -0.34931000
Si       2.63254988       2.57626285       5.27638686      -0.00643400       0.49521000       0.50588800       0.36475000       0.46707000      -0.10110000
Si       3.97317957       3.94450346       6.53788315       0.13086600       0.61750000       0.62294000      -0.31534000       0.02882000       0.21221000
Si       2.66903184       2.63352055       0.00784860       0.50228400      -0.00263400       0.00410900      -0.59171000      -0.09251000      -0.15120000
Si       3.89337982       4.00060893       1.34006803       0.62173400       0.13728800       0.11694800      -0.00957000      -0.00393000       0.02547000
Si       5.29993253       2.63825987       2.52010182       0.51398000      -0.01345300       0.49158000      -0.68804000       0.56817000       0.70375000
Si       6.56040829       3.92825266       3.92042154       0.62308300       0.12218800       0.62162100       0.49422000      -0.31065000       0.31126000
Si       2.60158612       5.25728831       2.74168132       0.48543000       0.51203200       0.00814000       0.00511000       0.17881000       0.21828000
Si       4.02678536       6.62608475       3.95640318       0.63524300       0.62191400       0.12872500      -0.46906000      -0.19019000      -0.17808000
Si       5.30009168       5.26459153       5.26278497       0.50294300       0.49588200       0.50262100       0.09300000       0.18511000      -0.09905000
Si       6.61392584       6.58385285       6.60127740       0.62575000       0.62337200       0.62908200       0.32015000      -1.14518000      -0.02106000
16
Lattice="5.27095 5.271013 0.00014 0.000257 5.270896 5.270872 5.270834 0.000257 5.270872" Properties=species:S:1:pos:R:3:frac_pos:R:3:dft_force:R:3 opt_strategy_bias=3 num_dump_cycles=0 fix_occupancy=F castep_run_time=740.29 dft_virial="21.22241961 -0.3336314 1.46234031 -0.3336314 21.33112592 1.46465803 1.46234031 1.46465803 21.2901216" cutoff_factor=1.2 finite_basis_corr=automatic spin_polarized=F standardized_energy=-0.5164504583378121 elec_energy_tol=1e-07 nextra_bands=570 cutoff=-1.0 energy_per_atom=-163.0992645 mixing_scheme=pulay smearing_width=0.05 mix_charge_amp=0.05 dft_energy=-2609.588232 centered_energy=-0.8324665136337899 in_file=md_sample_dia.xyz@256 nneightol=1.2 xc_functional=PW91 max_scf_cycles=250 fine_grid_scale=4 cut_off_energy="250 eV" task=SinglePoint popn_calculate=F castep_file_name=md_sample_dia.xyz-00256/eval.castep calculate_stress=T config_type=dia mix_history_length=20 kpoints_mp_grid="6 6 6" pbc="T T T"
Si      -0.06871779       0.05818784       0.02713395      -0.00357300       0.01461300      -0.00946500      -0.21653000      -0.16579000      -0.08884000
Si       1.32680329       1.25627678       1.35067732       0.11690000       0.12143300       0.13481700       0.50285000       0.35026000      -0.42767000
Si       2.65120114      -0.05538311       2.64795363      -0.00495600      -0.00557600       0.50795100       0.15260000      -0.10740000       0.17405000
Si       3.97077719       1.36413992       3.88465719       0.13755600       0.12121700       0.61578400      -0.18702000       0.11118000       0.06139000
Si       0.03717085       2.63583877       2.59114068       0.00775300       0.49232100      -0.00072500      -0.20488000      -0.09810000       0.43753000
Si       1.22276289       3.94286457       4.03567396       0.10716800       0.64086800       0.12478500       0.42812000      -0.02892000      -0.00785000
Si       2.68090714       2.66946450       5.28957913       0.00574300       0.50068600       0.50286300      -0.54670000      -0.64107000      -0.65969000
Si       4.00242865       3.94762432       6.54663668       0.13309900       0.61581500       0.62622200       0.04861000       0.57545000       0.49474000
Si       2.63389898       2.63546948      -0.00478970       0.50030800      -0.00031500      -0.00060700      -0.51066000      -0.43405000       0.20902000
Si       3.86511460       3.98493596       1.31628149       0.61978900       0.13621800       0.11349300       0.27923000       0.26707000       0.29325000
Si       5.29342922       2.66135070       2.52556298       0.51500700      -0.01012800       0.48926900      -0.34105000      -0.28203000      -0.00972000
Si       6.53940588       3.90586634       3.94678348       0.61643200       0.12454900       0.62422600       0.58528000       0.09165000      -0.26034000
Si       2.59825034       5.24730982       2.75360805       0.48301000       0.51250400       0.00990300       0.12596000       0.24961000      -0.09982000
Si       4.00342722       6.62192312       3.98576872       0.62981300       0.62648500       0.12968600      -0.38686000      -0.00178000      -0.67130000
Si       5.31234345       5.28694398       5.24096771       0.50826800       0.49474100       0.49957200      -0.10838000      -0.11389000       0.27537000
Si       6.64107574       6.54810663       6.57187434       0.62769000       0.61457900       0.63223300       0.37943000       0.22780000       0.27987000
16
Lattice="5.271237 5.271312 0.000175 0.000256 5.271231 5.2712 5.271119 0.000293 5.271164" Properties=species:S:1:pos:R:3:frac_pos:R:3:dft_force:R:3 opt_strategy_bias=3 num_dump_cycles=0 fix_occupancy=F castep_run_time=517.86 dft_virial="21.20024374 -0.41423577 1.15343087 -0.41423577 21.0076963 -0.4390366 1.15343087 -0.4390366 21.31623326" cutoff_factor=1.2 finite_basis_corr=automatic spin_polarized=F standardized_energy=-0.48353712702957397 elec_energy_tol=1e-07 nextra_bands=360 cutoff=-1.0 energy_per_atom=-163.0959486875 mixing_scheme=pulay smearing_width=0.05 mix_charge_amp=0.05 dft_energy=-2609.535179 centered_energy=-0.779413513633699 in_file=md_sample_dia.xyz@257 nneightol=1.2 xc_functional=PW91 max_scf_cycles=250 fine_grid_scale=4 cut_off_energy="250 eV" task=SinglePoint popn_calculate=F castep_file_name=md_sample_dia.xyz-00257/eval.castep calculate_stress=T config_type=dia mix_history_length=20 kpoints_mp_grid="6 6 6" pbc="T T T"
Si      -0.07714978       0.05840211       0.03893773      -0.00547200       0.01655200      -0.00916500      -0.41322000      -0.24696000      -0.30296000
Si       1.35057266       1.24085485       1.30719501       0.12181000       0.11358200       0.13440300      -0.06125000       0.10417000       0.52361000
Si       2.66478544      -0.05925792       2.64163768      -0.00343700      -0.00783300       0.50898200      -0.09531000       0.25799000       0.63255000
Si       3.98568305       1.38114356       3.88392804       0.14064300       0.12133600       0.61548400      -0.52459000      -0.00607000       0.21369000
Si       0.02881597       2.58003719       2.60627617       0.00023100       0.48922500       0.00521200      -0.04703000       0.37028000       0.22781000
Si       1.21176545       3.96873819       4.02839760       0.10926300       0.64363400       0.12059100       0.30009000      -0.33587000      -0.30641000
Si       2.68386767       2.71572658       5.26640862       0.01260800       0.50256200       0.49653200      -0.19078000      -0.58203000      -0.13091000
Si       4.01893446       3.99340008       6.59278568       0.13462000       0.62292700       0.62779100       0.23057000      -0.41812000      -0.08531000
Si       2.56278283       2.62488990       0.00616917       0.49149300       0.00646500      -0.00531100       0.79349000      -0.14608000       0.23940000
Si       3.86389094       3.97716450       1.33625812       0.61700800       0.13748000       0.11600200      -0.05630000       0.16295000      -0.39879000
Si       5.26257000       2.67016221       2.51386562       0.51399700      -0.00747800       0.48437000       0.74491000      -0.79936000      -0.02859000
Si       6.56518183       3.87689792       3.94778697       0.61600000       0.11943800       0.62948100      -0.31162000       0.76978000      -0.65820000
Si       2.62464650       5.25403147       2.74591087       0.48685600       0.50987300       0.01103800      -0.35004000      -0.22135000       0.05625000
Si       3.94371737       6.61524455       3.97711450       0.62430300       0.63065200       0.12382700       0.34190000       0.07526000       0.10587000
Si       5.32064338       5.28915139       5.25029155       0.50835200       0.49501200       0.50100800      -0.02436000       0.05360000      -0.07372000
Si       6.70244183       6.52768831       6.56984237       0.63173200       0.60658400       0.63976500      -0.33649000       0.96182000      -0.01430000
16
Lattice="5.271532 5.271617 0.000224 0.000266 5.271575 5.271542 5.27144 0.000317 5.271491" Properties=species:S:1:pos:R:3:frac_pos:R:3:dft_force:R:3 opt_strategy_bias=3 num_dump_cycles=0 fix_occupancy=F castep_run_time=200.35 dft_virial="20.86900296 -0.47119624 -1.4572858 -0.47119624 21.08791801 -1.44080386 -1.4572858 -1.44080386 20.94619417" cutoff_factor=1.2 finite_basis_corr=automatic spin_polarized=F standardized_energy=-0.5186187069367563 elec_energy_tol=1e-07 nextra_bands=200 cutoff=-1.0 energy_per_atom=-163.0994829375 mixing_scheme=pulay smearing_width="0.05 eV" dft_energy=-2609.591727 centered_energy=-0.8359615136337197 in_file=md_sample_dia.xyz@258 nneightol=1.2 xc_functional=PW91 max_scf_cycles=250 fine_grid_scale=4 cut_off_energy="250 eV" task=SinglePoint popn_calculate=F castep_file_name=md_sample_dia.xyz-00258/eval.castep calculate_stress=T config_type=dia mix_history_length=20 kpoints_mp_grid="6 6 6" pbc="T T T"
Si      -0.09969558       0.03714484       0.01590843      -0.00744200       0.01448900      -0.01147100       0.12393000      -0.03279000      -0.08259000
Si       1.34235594       1.24666932       1.30624005       0.12166600       0.11481400       0.13297300      -0.41223000      -0.35470000       0.61100000
Si       2.66568181      -0.03685542       2.67784246      -0.00466200      -0.00236000       0.51034600       0.02201000       0.16916000      -0.19929000
Si       3.97330933       1.38794800       3.89168941       0.13937000       0.12388100       0.61436400      -0.16739000       0.04392000       0.11881000
Si       0.01522769       2.56480275       2.63255384      -0.00499600       0.49153000       0.00786000       0.02126000       0.28164000      -0.01378000
Si       1.22765082       3.95456794       4.00986456       0.11117700       0.63898300       0.12167600      -0.22046000      -0.13148000      -0.19231000
Si       2.66682947       2.71067411       5.23908928       0.01310200       0.50107400       0.49277400       0.60180000       0.10648000       0.43215000
Si       4.04524950       4.00269676       6.61925728       0.13547800       0.62378100       0.63187800      -0.29686000      -0.47304000      -0.36664000
Si       2.54351148       2.60915350       0.02034671       0.48680200       0.00814200      -0.00430300       0.72574000       0.68819000      -0.25996000
Si       3.87491824       3.98541592       1.34414374       0.61805600       0.13795200       0.11700400      -0.08694000      -0.46902000      -0.44281000
Si       5.29374912       2.61670210       2.48912255       0.51420300      -0.01785700       0.49002100       0.08204000       0.11510000       0.33966000
Si       6.54923691       3.91854755       3.90858711       0.62212300       0.12117000       0.62026000      -0.07479000      -0.17700000      -0.02782000
Si       2.61288491       5.24020123       2.73925405       0.48503400       0.50901000       0.01060000      -0.02059000       0.07944000       0.08346000
Si       3.93176532       6.60224436       3.99412688       0.62028900       0.63212200       0.12553000       0.13313000       0.03269000       0.11975000
Si       5.33126478       5.29639457       5.24644862       0.51038300       0.49429100       0.50093200       0.12341000       0.26422000       0.38219000
Si       6.74233986       6.58132709       6.58190492       0.63942500       0.60898700       0.63956500      -0.55405000      -0.14281000      -0.50181000
16
Lattice="5.271831 5.271929 0.000234 0.00025 5.271913 5.271874 5.271752 0.000314 5.271811" Properties=species:S:1:pos:R:3:frac_pos:R:3:dft_force:R:3 opt_strategy_bias=3 num_dump_cycles=0 fix_occupancy=F castep_run_time=195.43 dft_virial="20.87716394 1.345414 -0.55941278 1.345414 21.2870052 0.44482467 -0.55941278 0.44482467 20.90649266" cutoff_factor=1.2 finite_basis_corr=automatic spin_polarized=F standardized_energy=-0.45564395814281816 elec_energy_tol=1e-07 nextra_bands=200 cutoff=-1.0 energy_per_atom=-163.093138625 mixing_scheme=pulay smearing_width="0.05 eV" dft_energy=-2609.490218 centered_energy=-0.7344525136336415 in_file=md_sample_dia.xyz@259 nneightol=1.2 xc_functional=PW91 max_scf_cycles=250 fine_grid_scale=4 cut_off_energy="250 eV" task=SinglePoint popn_calculate=F castep_file_name=md_sample_dia.xyz-00259/eval.castep calculate_stress=T config_type=dia mix_history_length=20 kpoints_mp_grid="6 6 6" pbc="T T T"
Si      -0.13067897       0.01722374      -0.01040275      -0.00977400       0.01304200      -0.01501500       0.59822000      -0.03741000      -0.11476000
Si       1.27308323       1.23388116       1.33284250       0.11135300       0.12268700       0.13013100       0.49311000       0.23688000      -0.37659000
Si       2.66025335       0.01121407       2.68611939      -0.00140200       0.00349900       0.50602600       0.02554000      -0.59368000      -0.78464000
Si       3.95814768       1.39437830       3.89450106       0.13826800       0.12618700       0.61254600       0.34029000       0.12129000      -0.09094000
Si       0.00531072       2.57103563       2.66201448      -0.00813900       0.49582400       0.00912300      -0.10988000      -0.30799000      -0.11180000
Si       1.22467895       3.91295448       3.98942928       0.10888100       0.63333800       0.12339700       0.13254000       0.29464000       0.57529000
Si       2.70902585       2.69790050       5.25923546       0.01398200       0.49773800       0.49987000       0.28061000       0.73805000      -0.02769000
Si       4.08748086       3.97070199       6.62263568       0.13612200       0.61702000       0.63920200      -0.93194000       0.39871000       0.03340000
Si       2.57893952       2.63885182       0.00634734       0.49427900       0.00626900      -0.00508700      -0.77182000       0.12676000      -0.03318000
Si       3.89308080       3.96049784       1.31267619       0.62036500       0.13087100       0.11809900      -0.23910000      -0.20276000       0.51944000
Si       5.33454163       2.59141474       2.48852992       0.51570100      -0.02418100       0.49620300      -0.66032000       0.45882000       0.26828000
Si       6.50622950       3.96198583       3.87561014       0.62525700       0.12623200       0.60889600       0.68826000      -0.37839000       0.52644000
Si       2.59620827       5.22372348       2.75851945       0.48003500       0.51082200       0.01240900       0.35541000       0.40379000      -0.66473000
Si       3.94251306       6.59857740       4.02885499       0.61763200       0.63400600       0.13018500      -0.26778000      -0.17344000      -0.24152000
Si       5.34340739       5.32461368       5.28305385       0.51071100       0.49925400       0.50285000      -0.11695000      -0.23931000      -0.05775000
Si       6.73702754       6.61192023       6.52972291       0.64673700       0.60740200       0.63117300       0.18383000      -0.84597000       0.58076000
16
Lattice="5.27216 5.272276 0.000239 0.000245 5.27227 5.272222 5.272064 0.000334 5.272132" Properties=species:S:1:pos:R:3:frac_pos:R:3:dft_force:R:3 opt_strategy_bias=3 num_dump_cycles=0 fix_occupancy=F castep_run_time=200.0 dft_virial="20.67732929 0.57022467 0.97182075 0.57022467 20.75033113 0.75859904 0.97182075 0.75859904 20.6781012" cutoff_factor=1.2 finite_basis_corr=automatic spin_polarized=F standardized_energy=-0.4914929553652599 elec_energy_tol=1e-07 nextra_bands=200 cutoff=-1.0 energy_per_atom=-163.0967501875 mixing_scheme=pulay smearing_width="0.05 eV" dft_energy=-2609.548003 centered_energy=-0.7922375136336086 in_file=md_sample_dia.xyz@260 nneightol=1.2 xc_functional=PW91 max_scf_cycles=250 fine_grid_scale=4 cut_off_energy="250 eV" task=SinglePoint popn_calculate=F castep_file_name=md_sample_dia.xyz-00260/eval.castep calculate_stress=T config_type=dia mix_history_length=20 kpoints_mp_grid="6 6 6" pbc="T T T"
Si      -0.12477321      -0.00613732      -0.05896465      -0.00682300       0.00566000      -0.01684400       0.00214000       0.04288000       0.54343000
Si       1.24164868       1.23088014       1.30522759       0.11069900       0.12275600       0.12480800       0.32730000       0.39386000      -0.30522000
Si       2.65604488       0.01742820       2.62568087       0.00452000      -0.00124600       0.49927600       0.03300000      -0.04202000       0.01518000
Si       3.97634600       1.41856165       3.88777364       0.14291600       0.12610600       0.61130500      -0.26592000      -0.17901000      -0.12305000
Si      -0.02563349       2.53794836       2.69689967      -0.01752000       0.49889600       0.01263500       0.20175000       0.11414000      -0.38043000
Si       1.22123372       3.90093240       4.02060474       0.10445000       0.63543800       0.12716100       0.67991000       0.20567000      -0.36325000
Si       2.74109709       2.73861132       5.29529438       0.01746300       0.50194200       0.50244200      -0.16377000      -0.07367000      -0.50062000
Si       4.06610200       3.97796232       6.63815008       0.13330200       0.62116400       0.63792100       0.02443000       0.35127000       0.29923000
Si       2.54268773       2.66834752      -0.00105648       0.49430900       0.01180100      -0.01202400      -0.41686000      -0.33707000       0.22539000
Si       3.88750010       3.93266212       1.32685927       0.61581100       0.13009500       0.12154900       0.15105000       0.13152000       0.00498000
Si       5.34505772       2.60605200       2.50722579       0.51628000      -0.02201800       0.49755700      -0.14136000       0.00502000      -0.19586000
Si       6.53258926       3.96730100       3.87586899       0.62819600       0.12424900       0.61088200       0.34672000       0.21405000       0.34074000
Si       2.61538331       5.23360395       2.71716563       0.48668200       0.50598300       0.00936900       0.04734000      -0.13668000       0.31396000
Si       3.92561471       6.59336407       4.05882285       0.61265300       0.63791200       0.13191300      -0.44054000      -0.31870000      -0.12558000
Si       5.35898249       5.33723825       5.31309493       0.51050300       0.50178700       0.50595100      -0.50273000      -0.76912000      -0.59284000
Si       6.76258000       6.56976001       6.51444424       0.64656900       0.59948700       0.63611100       0.11753000       0.39788000       0.84393000
16
Lattice="5.272504 5.272641 0.000267 0.000261 5.272647 5.272588 5.272396 0.000375 5.272474" Properties=species:S:1:pos:R:3:frac_pos:R:3:dft_force:R:3 opt_strategy_bias=3 num_dump_cycles=0 fix_occupancy=F castep_run_time=195.53 dft_virial="20.56656466 -1.59557369 -0.07106205 -1.59557369 20.6240645 -0.47775424 -0.07106205 -0.47775424 20.67102451" cutoff_factor=1.2 finite_basis_corr=automatic spin_polarized=F standardized_energy=-0.46518301120681205 elec_energy_tol=1e-07 nextra_bands=200 cutoff=-1.0 energy_per_atom=-163.094099625 mixing_scheme=pulay smearing_width="0.05 eV" dft_energy=-2609.505594 centered_energy=-0.7498285136339291 in_file=md_sample_dia.xyz@261 nneightol=1.2 xc_functional=PW91 max_scf_cycles=250 fine_grid_scale=4 cut_off_energy="250 eV" task=SinglePoint popn_calculate=F castep_file_name=md_sample_dia.xyz-00261/eval.castep calculate_stress=T config_type=dia mix_history_length=20 kpoints_mp_grid="6 6 6" pbc="T T T"
Si      -0.11980983      -0.02363736      -0.05583728      -0.00830800       0.00382600      -0.01441600      -0.34021000       0.20658000       0.20933000
Si       1.24791964       1.24478952       1.25696574       0.11718200       0.11889400       0.11949900      -0.36443000       0.15281000       0.29160000
Si       2.65071239       0.02100637       2.56501842       0.01010500      -0.00615600       0.49264800      -0.13869000       0.55342000       0.80729000
Si       3.96518577       1.43011095       3.87458849       0.14419200       0.12699700       0.60786400      -0.21816000      -0.46991000       0.04890000
Si      -0.03335728       2.51421999       2.70491463      -0.02126300       0.49810400       0.01491200       0.31395000       0.43071000      -0.15892000
Si       1.26309514       3.90960580       4.03629058       0.10774600       0.63373300       0.13178800      -0.08553000      -0.00443000      -0.85583000
Si       2.74513301       2.76804230       5.29460759       0.02069800       0.50424800       0.49993800       0.02576000      -0.66840000       0.01356000
Si       4.05152424       4.00876778       6.66907467       0.13189600       0.62835400       0.63651100       0.66857000      -0.45901000      -0.14604000
Si       2.47796722       2.66421636      -0.01207866       0.48879300       0.01649900      -0.01881500       0.86988000      -0.04165000       0.62391000
Si       3.88355797       3.93324744       1.35101833       0.61316100       0.13280300       0.12340300       0.01892000      -0.17098000      -0.63574000
Si       5.34168367       2.61958653       2.50950119       0.51699300      -0.02020200       0.49613900       0.23983000      -0.13015000       0.00979000
Si       6.57862141       3.97484851       3.88654434       0.63222200       0.12159700       0.61550700      -0.27970000       0.31542000      -0.58271000
Si       2.63553360       5.23686280       2.71916066       0.48868000       0.50453300       0.01115900      -0.07483000      -0.35404000       0.54972000
Si       3.88228778       6.58260761       4.07596287       0.60585700       0.64257900       0.13044100       0.27332000      -0.19032000       0.02416000
Si       5.36545860       5.29013446       5.29437293       0.50839000       0.49489100       0.50922600      -0.34910000       0.17261000      -0.03462000
Si       6.79039184       6.55401139       6.55665123       0.64366500       0.59931100       0.64420600      -0.55957000       0.65733000      -0.16439000
16
Lattice="5.27283 5.27299 0.000291 0.000256 5.273025 5.272955 5.272731 0.000389 5.272822" Properties=species:S:1:pos:R:3:frac_pos:R:3:dft_force:R:3 opt_strategy_bias=3 num_dump_cycles=0 fix_occupancy=F castep_run_time=200.39 dft_virial="20.3160081 0.57746276 -0.94460519 0.57746276 20.63995633 0.34331746 -0.94460519 0.34331746 20.44407555" cutoff_factor=1.2 finite_basis_corr=automatic spin_polarized=F standardized_energy=-0.4924706834889369 elec_energy_tol=1e-07 nextra_bands=200 cutoff=-1.0 energy_per_atom=-163.0968486875 mixing_scheme=pulay smearing_width="0.05 eV" dft_energy=-2609.549579 centered_energy=-0.7938135136337223 in_file=md_sample_dia.xyz@262 nneightol=1.2 xc_functional=PW91 max_scf_cycles=250 fine_grid_scale=4 cut_off_energy="250 eV" task=SinglePoint popn_calculate=F castep_file_name=md_sample_dia.xyz-00262/eval.castep calculate_stress=T config_type=dia mix_history_length=20 kpoints_mp_grid="6 6 6" pbc="T T T"
Si      -0.13059443      -0.01641032      -0.05517133      -0.00870800       0.00559700      -0.01606000       0.06854000      -0.00604000      -0.26371000
Si       1.21605116       1.27323820       1.25160241       0.11735900       0.12409600       0.11326300      -0.25260000      -0.14828000       0.35352000
Si       2.63838104       0.07030453       2.57092111       0.01305000       0.00024700       0.48733200      -0.07980000      -0.01373000       0.01416000
Si       3.93142082       1.40032491       3.87088328       0.13850800       0.12701200       0.60709700       0.49813000       0.24658000       0.09173000
Si      -0.01357814       2.52827478       2.71219480      -0.01874400       0.49821600       0.01614500      -0.24746000       0.12999000       0.17092000
Si       1.28661310       3.91605323       3.99820773       0.11419200       0.62845700       0.12978800      -0.38985000      -0.22323000       0.24040000
Si       2.75788464       2.74887533       5.29723381       0.01983900       0.50143300       0.50318300      -0.19440000      -0.27913000       0.15135000
Si       4.06669923       4.00774347       6.69266692       0.13099200       0.62900800       0.64024500       0.13078000      -0.32803000      -0.23938000
Si       2.48144757       2.65941687       0.02205235       0.48540100       0.01894700      -0.01479200       0.64417000       0.25518000      -0.19882000
Si       3.90267907       3.92535544       1.31341402       0.61775400       0.12666300       0.12239100      -0.10058000      -0.06637000       0.14182000
Si       5.35841685       2.62928970       2.51433003       0.51901000      -0.02041300       0.49723200      -0.36745000      -0.17952000       0.23388000
Si       6.60229101       3.99631468       3.85521472       0.63943400       0.11840400       0.61270600      -0.10754000      -0.19986000      -0.04493000
Si       2.65088916       5.19677861       2.75999706       0.48243200       0.50311000       0.02028900      -0.03657000       0.46571000      -0.88444000
Si       3.86680763       6.56702910       4.08814251       0.60171900       0.64367600       0.13159800       0.61319000       0.04669000       0.00507000
Si       5.35395339       5.24319703       5.27026054       0.50510300       0.48920600       0.51026800      -0.06776000       0.79121000       0.36835000
Si       6.75982308       6.58635571       6.56850603       0.64266900       0.60635400       0.63932400      -0.11081000      -0.49116000      -0.13992000
16
Lattice="5.273162 5.27335 0.000305 0.000243 5.273412 5.273328 5.273053 0.000415 5.273157" Properties=species:S:1:pos:R:3:frac_pos:R:3:dft_force:R:3 opt_strategy_bias=3 num_dump_cycles=0 fix_occupancy=F castep_run_time=1949.64 dft_virial="20.57502067 0.94569949 0.15264902 0.94569949 20.70730465 0.8528022 0.15264902 0.8528022 20.5346237" cutoff_factor=1.2 finite_basis_corr=automatic spin_polarized=F standardized_energy=-0.501549410240821 elec_energy_tol=1e-07 nextra_bands=885 cutoff=-1.0 energy_per_atom=-163.0977633125 mixing_scheme=pulay smearing_width=0.05 mix_charge_amp=0.05 dft_energy=-2609.564213 centered_energy=-0.8084475136338369 in_file=md_sample_dia.xyz@263 nneightol=1.2 xc_functional=PW91 max_scf_cycles=250 fine_grid_scale=4 cut_off_energy="250 eV" task=SinglePoint popn_calculate=F castep_file_name=md_sample_dia.xyz-00263/eval.castep calculate_stress=T config_type=dia mix_history_length=20 kpoints_mp_grid="6 6 6" pbc="T T T"
Si      -0.13437312      -0.01532173      -0.08695038      -0.00594900       0.00304500      -0.01953400       0.39646000       0.02137000       0.25073000
Si       1.19398986       1.29019543       1.27694687       0.11446400       0.13018900       0.11196000       0.01440000       0.05590000      -0.38484000
Si       2.62641600       0.11397863       2.58087858       0.01511100       0.00646500       0.48297100       0.22980000      -0.63159000      -0.41339000
Si       3.93973875       1.39574704       3.87510123       0.13845300       0.12617700       0.60868400       0.23643000       0.41245000       0.18201000
Si      -0.01858891       2.54647495       2.72779978      -0.01897200       0.50186000       0.01542400      -0.33135000      -0.13224000       0.11162000
Si       1.27151920       3.91011765       3.98905847       0.11305800       0.62841100       0.12804600       0.46148000      -0.03939000       0.36263000
Si       2.75351096       2.71266838       5.31372892       0.01442500       0.49994000       0.50773700      -0.45026000       0.05676000       0.02531000
Si       4.07708526       3.98887240       6.69064404       0.13037000       0.62599300       0.64279100      -0.51931000       0.12526000      -0.07607000
Si       2.55101262       2.67083352       0.03924764       0.49141800       0.01506000      -0.00764600      -0.60897000      -0.21236000      -0.61736000
Si       3.91392618       3.91967074       1.29191749       0.62028000       0.12300700       0.12195200       0.39120000       0.26022000       0.54522000
Si       5.34233463       2.61845049       2.53526625       0.51443800      -0.01793300       0.49869100      -0.10414000       0.17407000       0.09713000
Si       6.61704184       4.01036411       3.83980754       0.64358400       0.11686300       0.61127600      -0.11337000      -0.41464000       0.53915000
Si       2.66510651       5.19264314       2.72576497       0.48660300       0.49808500       0.01878400      -0.32835000       0.46938000      -0.47086000
Si       3.89217205       6.55292430       4.09426681       0.60216700       0.64046400       0.13591600       0.08762000       0.14238000      -0.34902000
Si       5.33229649       5.25714889       5.27717054       0.50368400       0.49319800       0.50751800       0.30929000       0.03684000       0.08729000
Si       6.70919661       6.57125416       6.56341727       0.63687700       0.60919100       0.63543700       0.32907000      -0.32441000       0.11045000
16
Lattice="5.273512 5.273729 0.000332 0.000245 5.273816 5.273715 5.273379 0.000464 5.273497" Properties=species:S:1:pos:R:3:frac_pos:R:3:dft_force:R:3 opt_strategy_bias=3 num_dump_cycles=0 fix_occupancy=F castep_run_time=196.14 dft_virial="20.84624948 -1.48931372 1.46167346 -1.48931372 20.80373924 -0.75718825 1.46167346 -0.75718825 20.56474682" cutoff_factor=1.2 finite_basis_corr=automatic spin_polarized=F standardized_energy=-0.5127126334997016 elec_energy_tol=1e-07 nextra_bands=200 cutoff=-1.0 energy_per_atom=-163.0988879375 mixing_scheme=pulay smearing_width="0.05 eV" dft_energy=-2609.582207 centered_energy=-0.8264415136336538 in_file=md_sample_dia.xyz@264 nneightol=1.2 xc_functional=PW91 max_scf_cycles=250 fine_grid_scale=4 cut_off_energy="250 eV" task=SinglePoint popn_calculate=F castep_file_name=md_sample_dia.xyz-00264/eval.castep calculate_stress=T config_type=dia mix_history_length=20 kpoints_mp_grid="6 6 6" pbc="T T T"
Si      -0.09780531       0.00222194      -0.10082911       0.00049800      -0.00007500      -0.01904500       0.16002000      -0.43125000       0.40057000
Si       1.20039433       1.28660985       1.25662480       0.11665000       0.12730400       0.11097400       0.00303000       0.47872000       0.16896000
Si       2.65056150       0.11271285       2.55517440       0.01971500       0.00161500       0.48291500      -0.18769000      -0.30201000       0.42785000
Si       3.96533072       1.42197616       3.90345927       0.14066600       0.12891200       0.61127700      -0.46934000      -0.08107000      -0.03094000
Si      -0.06195686       2.56161987       2.72157072      -0.02105700       0.50678000       0.00928500       0.46174000      -0.21196000       0.12382000
Si       1.29979822       3.90754281       3.99894079       0.11454900       0.62637400       0.13190200       0.21182000       0.13308000      -0.45155000
Si       2.70188190       2.68474455       5.33568285       0.00479700       0.50422900       0.50754200      -0.00413000       0.13061000      -0.02001000
Si       4.03584578       3.98582959       6.68984739       0.12623500       0.62948800       0.63905700      -0.24520000      -0.00127000      -0.41768000
Si       2.56860471       2.66004604       0.02867469       0.49303300       0.01136300      -0.00595700      -0.14684000       0.00212000      -0.19618000
Si       3.95254764       3.93605423       1.32633355       0.62219000       0.12414800       0.12731700      -0.03069000       0.17125000      -0.44134000
Si       5.32669345       2.60695527       2.54409569       0.51099200      -0.01670700       0.49910600       0.34406000       0.41511000       0.32980000
Si       6.62523887       3.98803134       3.85915619       0.64036400       0.11578700       0.61597000      -0.04059000       0.10160000       0.23372000
Si       2.65112097       5.24873484       2.64843935       0.49789400       0.49735800       0.00480700       0.05159000      -0.57091000       0.91383000
Si       3.90887488       6.52798901       4.08518400       0.60220600       0.63560300       0.13899600      -0.28120000       0.40132000      -0.44021000
Si       5.32642801       5.27190897       5.30150021       0.50218400       0.49741800       0.50784000       0.22546000      -0.78503000      -0.30564000
Si       6.68221613       6.53718371       6.58396016       0.62909500       0.61041400       0.63802100      -0.05203000       0.54969000      -0.29501000
16
Lattice="5.231907 5.231907 -3e-06 1e-06 5.231903 5.231903 5.231893 1e-05 5.231894" Properties=species:S:1:pos:R:3:frac_pos:R:3:dft_force:R:3 opt_strategy_bias=3 num_dump_cycles=0 fix_occupancy=F castep_run_time=196.8 dft_virial="26.95718956 2.10700567 -1.43487104 2.10700567 27.00542315 0.7908174 -1.43487104 0.7908174 26.96606543" cutoff_factor=1.2 finite_basis_corr=automatic spin_polarized=F standardized_energy=-0.18417923354953097 elec_energy_tol=1e-07 nextra_bands=200 cutoff=-1.0 energy_per_atom=-163.06579025 mixing_scheme=pulay smearing_width="0.05 eV" dft_energy=-2609.052644 centered_energy=-0.29687851363360096 in_file=md_sample_dia.xyz@265 nneightol=1.2 xc_functional=PW91 max_scf_cycles=250 fine_grid_scale=4 cut_off_energy="250 eV" task=SinglePoint popn_calculate=F castep_file_name=md_sample_dia.xyz-00265/eval.castep calculate_stress=T config_type=dia mix_history_length=20 kpoints_mp_grid="6 6 6" pbc="T T T"
Si       0.00225494      -0.00234389       0.00412797      -0.00040300      -0.00004500       0.00083400       0.00429000       0.21288000      -0.25826000
Si       1.28625752       1.30915988       1.30265343       0.12354600       0.12668000       0.12230300       0.60799000      -0.14520000       0.35453000
Si       2.63940628      -0.03227579       2.62221477      -0.00144200      -0.00472800       0.50592600      -0.14438000       0.67006000      -0.59544000
Si       3.89868813       1.30249945       3.94942679       0.11962700       0.12932500       0.62555000       0.55059000       0.05536000      -0.50588000
Si       0.01793015       2.59919377       2.65604875      -0.00372000       0.50051700       0.00714700      -0.49907000       0.11289000      -0.51264000
Si       1.30432379       3.93778829       3.91532975       0.12679700       0.62585200       0.12250500       0.05118000      -0.04485000       0.23139000
Si       2.61382809       2.62229756       5.22783332       0.00079200       0.50042000       0.49880300      -0.17578000       0.17744000      -0.52165000
Si       3.90539594       3.88701768       6.51768426       0.12182200       0.62112200       0.62463700       0.75054000       0.10751000       0.67943000
Si       2.61705743       2.60128324      -0.01853813       0.50047500      -0.00327900      -0.00026400      -0.13432000       0.14642000       0.25599000
Si       3.94151832       3.92501400       1.26750398       0.63065200       0.11955500       0.12271000      -0.49149000      -0.19352000       0.84698000
Si       5.25256077       2.64041244       2.64453782       0.50157900       0.00309500       0.50237000      -0.56268000      -0.16623000      -0.17370000
Si       6.56178113       3.95217259       3.92065504       0.63010400       0.12529300       0.62408300      -0.16700000      -0.28112000       0.38207000
Si       2.57575211       5.23937609       2.60770458       0.49766000       0.50376800      -0.00534400       0.68501000       0.03204000      -0.54486000
Si       3.91530693       6.52550000       3.92962179       0.62225700       0.62499400       0.12609500       0.10389000      -0.41016000      -0.05514000
Si       5.23705910       5.21416341       5.25291876       0.49678800       0.49982000       0.50419800      -0.02724000       0.36699000      -0.02442000
Si       6.54990005       6.59787265       6.51925235       0.63347000       0.62761300       0.61844600      -0.55152000      -0.64049000       0.44159000
16
Lattice="5.231979 5.231981 -1.4e-05 1.1e-05 5.231955 5.231954 5.231909 5.6e-05 5.23191" Properties=species:S:1:pos:R:3:frac_pos:R:3:dft_force:R:3 opt_strategy_bias=3 num_dump_cycles=0 fix_occupancy=F castep_run_time=194.58 dft_virial="26.69543067 -1.04922264 0.62050592 -1.04922264 26.69432585 -1.40501439 0.62050592 -1.40501439 26.75222319" cutoff_factor=1.2 finite_basis_corr=automatic spin_polarized=F standardized_energy=-0.2279257428366151 elec_energy_tol=1e-07 nextra_bands=200 cutoff=-1.0 energy_per_atom=-163.0701974375 mixing_scheme=pulay smearing_width="0.05 eV" dft_energy=-2609.123159 centered_energy=-0.36739351363394235 in_file=md_sample_dia.xyz@266 nneightol=1.2 xc_functional=PW91 max_scf_cycles=250 fine_grid_scale=4 cut_off_energy="250 eV" task=SinglePoint popn_calculate=F castep_file_name=md_sample_dia.xyz-00266/eval.castep calculate_stress=T config_type=dia mix_history_length=20 kpoints_mp_grid="6 6 6" pbc="T T T"
Si       0.01273974      -0.00154855       0.00284087       0.00079800      -0.00109400       0.00163700      -0.22825000       0.15380000       0.22821000
Si       1.31441719       1.29733120       1.33468500       0.12204300       0.12591800       0.12918600      -0.02071000       0.21155000      -0.53280000
Si       2.63799687       0.00466358       2.58411854       0.00559200      -0.00470600       0.49862100       0.36236000      -0.32969000       0.40138000
Si       3.92541196       1.30828865       3.93962683       0.12366600       0.12638400       0.62661500      -0.20016000      -0.02868000      -0.03692000
Si       0.00945921       2.58448661       2.64403051      -0.00478700       0.49876800       0.00659400       0.00349000      -0.18505000       0.15200000
Si       1.28706550       3.95450986       3.89791386       0.12840700       0.62742900       0.11759300       0.21429000       0.00869000      -0.06238000
Si       2.58907872       2.65097027       5.20507671       0.00333900       0.50334400       0.49152300       0.28935000      -0.13065000      -0.00900000
Si       3.95209457       3.85765332       6.56156267       0.11928000       0.61803800       0.63610000      -0.31150000       0.46415000      -0.28219000
Si       2.59558497       2.60312493      -0.02294898       0.49901300      -0.00147200      -0.00291300       0.54517000      -0.28186000       0.13097000
Si       3.93052725       3.91194035       1.29435544       0.62577600       0.12192100       0.12547600      -0.18916000      -0.18952000       0.07433000
Si       5.23426683       2.62511698       2.65573691       0.49728900       0.00445000       0.50315500       0.06837000       0.46521000       0.05839000
Si       6.56724229       3.97178018       3.95419600       0.62928200       0.12984700       0.62593800      -0.29031000      -0.10827000      -0.43083000
Si       2.58288772       5.24960970       2.56467630       0.50342400       0.49994800      -0.00975200       0.35235000      -0.34839000      -0.04639000
Si       3.92829833       6.47380909       3.90289771       0.62110200       0.61625300       0.12972300      -0.46417000       0.46947000       0.30473000
Si       5.21944501       5.23349232       5.26129718       0.49614100       0.50414500       0.50146900       0.18828000      -0.10594000       0.27413000
Si       6.53298929       6.59475243       6.53919490       0.62963700       0.63082900       0.61903500      -0.31941000      -0.06481000      -0.22364000
16
Lattice="5.232068 5.232071 -3.8e-05 1.8e-05 5.232016 5.232015 5.231956 7.4e-05 5.231959" Properties=species:S:1:pos:R:3:frac_pos:R:3:dft_force:R:3 opt_strategy_bias=3 num_dump_cycles=0 fix_occupancy=F castep_run_time=194.99 dft_virial="26.57720037 -0.69034102 0.20638486 -0.69034102 26.76205303 -0.96985028 0.20638486 -0.96985028 26.6223869" cutoff_factor=1.2 finite_basis_corr=automatic spin_polarized=F standardized_energy=-0.20441249815834542 elec_energy_tol=1e-07 nextra_bands=200 cutoff=-1.0 energy_per_atom=-163.067828625 mixing_scheme=pulay smearing_width="0.05 eV" dft_energy=-2609.085258 centered_energy=-0.32949251363379517 in_file=md_sample_dia.xyz@267 nneightol=1.2 xc_functional=PW91 max_scf_cycles=250 fine_grid_scale=4 cut_off_energy="250 eV" task=SinglePoint popn_calculate=F castep_file_name=md_sample_dia.xyz-00267/eval.castep calculate_stress=T config_type=dia mix_history_length=20 kpoints_mp_grid="6 6 6" pbc="T T T"
Si      -0.00114074       0.00353687       0.02359636      -0.00202600       0.00270200       0.00180800      -0.09597000      -0.06995000       0.07258000
Si       1.35385295       1.29051442       1.32181975       0.12638700       0.12026700       0.13237600      -0.39995000       0.04646000      -0.48615000
Si       2.65371159       0.00629488       2.58235830       0.00741700      -0.00622100       0.49979500       0.24009000      -0.52161000       0.49376000
Si       3.93110394       1.30217644       3.92279422       0.12523100       0.12364500       0.62613000      -0.41231000       0.11743000       0.53724000
Si       0.03196001       2.55502937       2.62446203      -0.00358200       0.49192700       0.00968900      -0.11459000       0.15443000       0.35133000
Si       1.28169315       3.97885391       3.87702688       0.13221300       0.62826600       0.11275600       0.15220000      -0.17120000       0.08228000
Si       2.57231103       2.65152263       5.19260614       0.00298000       0.50380100       0.48867200       0.34102000      -0.05649000       0.28977000
Si       3.97378965       3.88172840       6.57069036       0.12277800       0.61913000       0.63674000      -0.69979000      -0.43227000      -0.37533000
Si       2.61721098       2.59548942      -0.00373377       0.49850400      -0.00243100       0.00172100       0.31130000       0.12799000      -0.33604000
Si       3.93123778       3.88800724       1.33703143       0.61946600       0.12364400       0.13191000       0.01317000       0.07233000      -0.77208000
Si       5.21456839       2.65623329       2.68376752       0.49569100       0.01198500       0.50097500       0.52530000      -0.12643000       0.05256000
Si       6.56540331       3.97132230       3.94638196       0.62979600       0.12923100       0.62505600       0.00414000       0.07335000       0.11431000
Si       2.60982297       5.23484239       2.52848849       0.50803500       0.49250000      -0.00922400      -0.46090000       0.28154000       0.25871000
Si       3.90829419       6.47973311       3.89608348       0.62039500       0.61807400       0.12659400      -0.10900000       0.31399000       0.21132000
Si       5.19992753       5.23247781       5.27325928       0.49302500       0.50705100       0.50084100       0.31243000       0.00051000      -0.35943000
Si       6.47647374       6.59305298       6.54306847       0.62369000       0.63643100       0.61416300       0.39287000       0.18993000      -0.13482000
16
Lattice="5.23217 5.232175 -7.1e-05 1.7e-05 5.232087 5.232087 5.232031 6.8e-05 5.232037" Properties=species:S:1:pos:R:3:frac_pos:R:3:dft_force:R:3 opt_strategy_bias=3 num_dump_cycles=0 fix_occupancy=F castep_run_time=194.68 dft_virial="26.45317634 1.609984 0.16640229 1.609984 26.53255141 1.88134604 0.16640229 1.88134604 26.52732362" cutoff_factor=1.2 finite_basis_corr=automatic spin_polarized=F standardized_energy=-0.1899153212595179 elec_energy_tol=1e-07 nextra_bands=200 cutoff=-1.0 energy_per_atom=-163.066368125 mixing_scheme=pulay smearing_width="0.05 eV" dft_energy=-2609.06189 centered_energy=-0.30612451363367654 in_file=md_sample_dia.xyz@268 nneightol=1.2 xc_functional=PW91 max_scf_cycles=250 fine_grid_scale=4 cut_off_energy="250 eV" task=SinglePoint popn_calculate=F castep_file_name=md_sample_dia.xyz-00268/eval.castep calculate_stress=T config_type=dia mix_history_length=20 kpoints_mp_grid="6 6 6" pbc="T T T"
Si      -0.00692254       0.00447325       0.04746566      -0.00477000       0.00562500       0.00344700       0.09786000      -0.43319000      -0.48626000
Si       1.36011278       1.28817581       1.27836100       0.13091200       0.11529100       0.12904300       0.31912000      -0.22632000       0.46388000
Si       2.68658547      -0.02624055       2.62428445       0.00344300      -0.00846500       0.51004500      -0.37055000       0.15228000      -0.46562000
Si       3.90182648       1.29053161       3.97046028       0.11676300       0.12988400       0.62899100       0.20073000       0.48884000       0.13472000
Si       0.05581297       2.54529592       2.61315488      -0.00115200       0.48763000       0.01181800      -0.72839000       0.34770000      -0.12432000
Si       1.28754840       3.97211523       3.85469358       0.13426000       0.62492000       0.11182400      -0.06893000       0.01457000       0.47897000
Si       2.55610150       2.64514617       5.21386017      -0.00120900       0.50676500       0.48975600      -0.08148000      -0.00339000      -0.25673000
Si       3.92867079       3.87814443       6.51531038       0.12341400       0.61779900       0.62746900       0.43116000      -0.41922000       0.43456000
Si       2.66647520       2.60910341      -0.00241144       0.50437500      -0.00571000       0.00525600      -0.62405000      -0.01485000      -0.33748000
Si       3.93471667       3.86417952       1.31948697       0.61918400       0.11935800       0.13284300       0.27878000       0.61932000       0.11198000
Si       5.22430447       2.68570284       2.72358104       0.49562200       0.01767700       0.50288800       0.00203000      -0.80043000      -0.06301000
Si       6.57825956       3.97542210       3.96196888       0.62991300       0.12988400       0.62737500       0.25884000      -0.03543000       0.20037000
Si       2.59307356       5.23499281       2.51107855       0.50810100       0.49244600      -0.01250100      -0.10800000       0.40707000       0.20434000
Si       3.88148427       6.51374956       3.90409658       0.62030400       0.62464600       0.12154700       0.52931000      -0.38424000      -0.43805000
Si       5.21963549       5.23297575       5.25056396       0.49711400       0.50304100       0.50050200      -0.36751000       0.20097000      -0.21200000
Si       6.45343633       6.60792400       6.53434147       0.62373000       0.63921300       0.60969900       0.23110000       0.08632000       0.35465000
16
Lattice="5.232312 5.232322 -7.8e-05 4e-05 5.232204 5.232204 5.23213 0.000104 5.23214" Properties=species:S:1:pos:R:3:frac_pos:R:3:dft_force:R:3 opt_strategy_bias=3 num_dump_cycles=0 fix_occupancy=F castep_run_time=194.79 dft_virial="26.52681262 0.20702569 0.00362786 0.20702569 26.27221712 -0.23808151 0.00362786 -0.23808151 26.43749652" cutoff_factor=1.2 finite_basis_corr=automatic spin_polarized=F standardized_energy=-0.18326230324091644 elec_energy_tol=1e-07 nextra_bands=200 cutoff=-1.0 energy_per_atom=-163.065697875 mixing_scheme=pulay smearing_width="0.05 eV" dft_energy=-2609.051166 centered_energy=-0.29540051363392195 in_file=md_sample_dia.xyz@269 nneightol=1.2 xc_functional=PW91 max_scf_cycles=250 fine_grid_scale=4 cut_off_energy="250 eV" task=SinglePoint popn_calculate=F castep_file_name=md_sample_dia.xyz-00269/eval.castep calculate_stress=T config_type=dia mix_history_length=20 kpoints_mp_grid="6 6 6" pbc="T T T"
Si       0.01738047      -0.02795013       0.02274945      -0.00318400      -0.00215800       0.00650600      -0.09680000       0.22896000      -0.20822000
Si       1.37609926       1.26159204       1.27437358       0.13027600       0.11083900       0.13272800       0.07465000       0.24228000       0.53585000
Si       2.69085815      -0.04577537       2.63000766       0.00143600      -0.01019500       0.51285900       0.19347000       0.48057000      -0.41697000
Si       3.88352242       1.32987482       4.02787944       0.11328100       0.14087500       0.62895900       0.23818000      -0.66415000      -0.43624000
Si       0.01979139       2.55956839       2.60838953      -0.00277600       0.49197100       0.00655500       0.28629000      -0.04262000      -0.35645000
Si       1.30450324       3.96900511       3.86055864       0.13501700       0.62355000       0.11429900      -0.41420000      -0.32341000       0.03141000
Si       2.53760288       2.65093609       5.22054705      -0.00306500       0.50971300       0.48806500      -0.31741000       0.04419000       0.12894000
Si       3.93287652       3.83934560       6.50104215       0.12146500       0.61231100       0.63020400       0.57475000       0.73894000       0.16307000
Si       2.65617263       2.63343342      -0.02908357       0.50825000      -0.00494900      -0.00060200      -0.00742000      -0.70858000       0.30892000
Si       3.95037640       3.88441795       1.30859565       0.62363700       0.11875200       0.13136300       0.04786000       0.17014000       0.48107000
Si       5.21530407       2.64408445       2.74972465       0.48827100       0.01705600       0.50849600      -0.21208000       0.23281000      -0.05193000
Si       6.60504570       3.96446075       3.96699361       0.63092500       0.12675200       0.63145300      -0.59751000       0.25107000      -0.14779000
Si       2.57110197       5.24014711       2.52634165       0.50502000       0.49648700      -0.01363500       0.33269000       0.28919000      -0.26884000
Si       3.89745769       6.50483022       3.88002575       0.62325900       0.61995400       0.12162300      -0.20326000       0.12751000      -0.25522000
Si       5.22024492       5.27829545       5.20432390       0.50590500       0.50288300       0.49180200      -0.05226000      -0.55759000       0.66881000
Si       6.44412982       6.63693643       6.56890796       0.62228900       0.64616300       0.60933000       0.15304000      -0.50930000      -0.17640000
16
Lattice="5.23248 5.232491 -8.3e-05 6.9e-05 5.232339 5.232341 5.232253 0.000144 5.232266" Properties=species:S:1:pos:R:3:frac_pos:R:3:dft_force:R:3 opt_strategy_bias=3 num_dump_cycles=0 fix_occupancy=F castep_run_time=194.44 dft_virial="26.30291022 -1.52186138 -0.23504186 -1.52186138 26.29859187 -1.36416545 -0.23504186 -1.36416545 26.23829047" cutoff_factor=1.2 finite_basis_corr=automatic spin_polarized=F standardized_energy=-0.1721133488566885 elec_energy_tol=1e-07 nextra_bands=200 cutoff=-1.0 energy_per_atom=-163.0645746875 mixing_scheme=pulay smearing_width="0.05 eV" dft_energy=-2609.033195 centered_energy=-0.27742951363370594 in_file=md_sample_dia.xyz@270 nneightol=1.2 xc_functional=PW91 max_scf_cycles=250 fine_grid_scale=4 cut_off_energy="250 eV" task=SinglePoint popn_calculate=F castep_file_name=md_sample_dia.xyz-00270/eval.castep calculate_stress=T config_type=dia mix_history_length=20 kpoints_mp_grid="6 6 6" pbc="T T T"
Si       0.04347977      -0.04167960      -0.01785339       0.00187800      -0.00984400       0.00643200      -0.06434000       0.70419000       0.68016000
Si       1.39738324       1.26294821       1.32441003       0.12765300       0.11371300       0.13941100      -0.54379000       0.12176000      -0.51627000
Si       2.71606368      -0.03141862       2.58125794       0.00987300      -0.01589200       0.50922700       0.11479000      -0.03213000       0.75377000
Si       3.87859377       1.31189163       4.05086379       0.10888900       0.14181800       0.63239000      -0.19468000      -0.28768000      -0.39328000
Si       0.00122122       2.56364207       2.58544619      -0.00197000       0.49193100       0.00219700       0.74013000      -0.18020000       0.05052000
Si       1.29363208       3.94117566       3.86593219       0.13079900       0.62242800       0.11642900      -0.03235000      -0.10117000      -0.65486000
Si       2.50027654       2.66595594       5.24393148      -0.00743400       0.51693600       0.48528600       0.54100000      -0.26002000       0.36727000
Si       3.98213987       3.85756359       6.51046533       0.12700500       0.61022800       0.63405700      -0.34769000       0.44663000      -0.56762000
Si       2.65258347       2.58854130      -0.03147272       0.50382900      -0.00912400       0.00311700       0.07907000       0.43081000       0.50081000
Si       3.95697458       3.93901873       1.31702836       0.62865800       0.12414200       0.12757900      -0.05911000      -0.75970000       0.04873000
Si       5.19517311       2.62957509       2.77199500       0.48281500       0.01971900       0.51007700      -0.25255000       0.40768000      -0.46672000
Si       6.59210542       3.96467741       3.94758140       0.63154100       0.12614900       0.62832800      -0.05311000       0.25518000       0.03976000
Si       2.57373779       5.26219113       2.52924653       0.50708300       0.49860800      -0.01521300       0.04092000      -0.33668000      -0.02878000
Si       3.89455090       6.51467249       3.84620687       0.62713100       0.61792600       0.11716900      -0.05427000       0.00408000       0.29561000
Si       5.20532029       5.28737353       5.21293408       0.50450400       0.50598600       0.49032000       0.28402000      -0.48414000       0.02371000
Si       6.44082135       6.60878856       6.58468877       0.61775100       0.64528000       0.61319800      -0.19804000       0.07138000      -0.13281000
16
Lattice="5.232647 5.23266 -0.000108 7.4e-05 5.232477 5.232481 5.23239 0.000149 5.232407" Properties=species:S:1:pos:R:3:frac_pos:R:3:dft_force:R:3 opt_strategy_bias=3 num_dump_cycles=0 fix_occupancy=F castep_run_time=194.28 dft_virial="26.10803424 1.18993938 -0.89551118 1.18993938 26.36653206 1.98902221 -0.89551118 1.98902221 26.34480429" cutoff_factor=1.2 finite_basis_corr=automatic spin_polarized=F standardized_energy=-0.1461657100434681 elec_energy_tol=1e-07 nextra_bands=200 cutoff=-1.0 energy_per_atom=-163.061960625 mixing_scheme=pulay smearing_width="0.05 eV" dft_energy=-2608.99137 centered_energy=-0.2356045136339162 in_file=md_sample_dia.xyz@271 nneightol=1.2 xc_functional=PW91 max_scf_cycles=250 fine_grid_scale=4 cut_off_energy="250 eV" task=SinglePoint popn_calculate=F castep_file_name=md_sample_dia.xyz-00271/eval.castep calculate_stress=T config_type=dia mix_history_length=20 kpoints_mp_grid="6 6 6" pbc="T T T"
Si       0.06585549      -0.01824884      -0.00302547       0.00483800      -0.00832600       0.00774800      -0.48986000      -0.10114000       0.10858000
Si       1.36290052       1.26890304       1.32343313       0.12501600       0.11748100       0.13545000       0.61167000      -0.26221000      -0.30644000
Si       2.74352691      -0.02504785       2.60105329       0.01121400      -0.01601600       0.51312100      -0.73655000      -0.29653000      -0.16607000
Si       3.84684263       1.26082604       4.03424252       0.10256000       0.13838000       0.63263100       0.49134000       0.96066000       0.32010000
Si       0.05027849       2.56634318       2.57159612       0.00429900       0.48616500       0.00530300      -0.58067000       0.03016000      -0.08282000
Si       1.28231912       3.93424110       3.81821813       0.13361000       0.61827100       0.11144800       0.60075000       0.06740000       0.71587000
Si       2.50065707       2.65341798       5.29277659      -0.01326300       0.52035500       0.49117500       0.30990000      -0.04025000      -0.61501000
Si       3.99841577       3.89410689       6.48259040       0.13471100       0.60948500       0.62944000      -0.61764000      -0.59242000       0.38776000
Si       2.66845874       2.57984546       0.00301669       0.50120200      -0.00817500       0.00876200      -0.42903000       0.75666000      -0.05675000
Si       3.94732828       3.93843075       1.33527298       0.62591500       0.12674900       0.12845500       0.20954000      -0.34006000      -0.48853000
Si       5.17756059       2.65172167       2.74637152       0.48568000       0.02107000       0.50381700      -0.39806000      -0.21799000       0.21870000
Si       6.57474864       3.97937669       3.92915431       0.63302600       0.12744900       0.62348900       0.56877000      -0.41539000       0.26619000
Si       2.59027373       5.26321465       2.53520348       0.50817400       0.49768300      -0.01316000      -0.25447000       0.10047000      -0.02843000
Si       3.90016977       6.54219907       3.84491266       0.63040000       0.61988100       0.11495000       0.30018000      -0.25963000       0.44426000
Si       5.20553530       5.23715782       5.22116675       0.49892200       0.50194100       0.49591400       0.37307000       0.77778000      -0.72050000
Si       6.41072581       6.59999468       6.58794832       0.61370200       0.64761100       0.61145900       0.04107000      -0.16753000       0.00308000
16
Lattice="5.232843 5.232861 -0.000119 8.2e-05 5.232659 5.232664 5.232531 0.000192 5.232555" Properties=species:S:1:pos:R:3:frac_pos:R:3:dft_force:R:3 opt_strategy_bias=3 num_dump_cycles=0 fix_occupancy=F castep_run_time=194.38 dft_virial="26.20069704 0.90388008 0.55781187 0.90388008 26.29457005 0.84246058 0.55781187 0.84246058 26.164976" cutoff_factor=1.2 finite_basis_corr=automatic spin_polarized=F standardized_energy=-0.18451982538974168 elec_energy_tol=1e-07 nextra_bands=200 cutoff=-1.0 energy_per_atom=-163.0658245625 mixing_scheme=pulay smearing_width="0.05 eV" dft_energy=-2609.053193 centered_energy=-0.29742751363392017 in_file=md_sample_dia.xyz@272 nneightol=1.2 xc_functional=PW91 max_scf_cycles=250 fine_grid_scale=4 cut_off_energy="250 eV" task=SinglePoint popn_calculate=F castep_file_name=md_sample_dia.xyz-00272/eval.castep calculate_stress=T config_type=dia mix_history_length=20 kpoints_mp_grid="6 6 6" pbc="T T T"
Si       0.04978690      -0.02652776       0.03312697      -0.00094300      -0.00412700       0.01045800      -0.11820000      -0.32127000      -0.96262000
Si       1.37088321       1.25548159       1.29002592       0.12768300       0.11223900       0.13430000       0.52904000       0.20745000       0.04875000
Si       2.71160866      -0.03562379       2.59531338       0.00770000      -0.01452700       0.51052100      -0.36436000       0.20717000       0.37631000
Si       3.85663446       1.29229015       4.04183758       0.10577000       0.14116900       0.63127100       0.16622000      -0.10688000       0.15445000
Si       0.05014870       2.56822235       2.53928514       0.00755300       0.48325300       0.00202300      -0.38613000       0.14673000       0.25702000
Si       1.33315896       3.92474338       3.81534164       0.13782900       0.61220900       0.11693600      -0.28464000       0.00367000       0.86345000
Si       2.52115541       2.64074850       5.30413690      -0.01360200       0.51825100       0.49541800      -0.28848000      -0.13833000      -0.55192000
Si       3.95334687       3.90061748       6.48476730       0.13081100       0.61459800       0.62470400       0.41190000      -0.11346000       0.09106000
Si       2.65636322       2.65839271       0.02926347       0.50502400       0.00299500       0.00260900      -0.05848000      -0.81922000      -0.54766000
Si       3.95470617       3.91641987       1.32772602       0.62521300       0.12321500       0.13054000       0.07256000       0.40480000       0.23441000
Si       5.14670195       2.62981934       2.73942305       0.48128200       0.02125900       0.50228600       0.23603000       0.11263000       0.39030000
Si       6.58800528       3.95354284       3.94638398       0.63015100       0.12535300       0.62885700      -0.00007000      -0.22120000      -0.48561000
Si       2.59212861       5.27079016       2.53816494       0.50877200       0.49849600      -0.01342300       0.12922000       0.30803000      -0.05405000
Si       3.93016088       6.54284755       3.87419719       0.63050400       0.61985400       0.12055000      -0.37553000       0.41613000       0.05329000
Si       5.23291813       5.25030176       5.18277683       0.50644100       0.49689300       0.49359500      -0.22384000      -0.04460000       0.07729000
Si       6.37963015       6.58655667       6.58377677       0.60981900       0.64887500       0.60935900       0.55478000      -0.04167000       0.05553000
16
Lattice="5.233068 5.233093 -0.000112 0.000108 5.232873 5.232877 5.232695 0.00026 5.232725" Properties=species:S:1:pos:R:3:frac_pos:R:3:dft_force:R:3 opt_strategy_bias=3 num_dump_cycles=0 fix_occupancy=F castep_run_time=194.11 dft_virial="26.0938525 -1.7260201 -0.1343353 -1.7260201 26.2766944 -2.10046831 -0.1343353 -2.10046831 26.27391661" cutoff_factor=1.2 finite_basis_corr=automatic spin_polarized=F standardized_energy=-0.15471834958155262 elec_energy_tol=1e-07 nextra_bands=200 cutoff=-1.0 energy_per_atom=-163.06282225 mixing_scheme=pulay smearing_width="0.05 eV" dft_energy=-2609.005156 centered_energy=-0.24939051363389808 in_file=md_sample_dia.xyz@273 nneightol=1.2 xc_functional=PW91 max_scf_cycles=250 fine_grid_scale=4 cut_off_energy="250 eV" task=SinglePoint popn_calculate=F castep_file_name=md_sample_dia.xyz-00273/eval.castep calculate_stress=T config_type=dia mix_history_length=20 kpoints_mp_grid="6 6 6" pbc="T T T"
Si       0.03085450      -0.07915074      -0.00607643      -0.00403400      -0.01109200       0.00993100       0.63301000       0.49898000       0.05741000
Si       1.42894848       1.26016236       1.27970058       0.13465800       0.10614600       0.13841100      -1.25421000       0.01684000      -0.22792000
Si       2.66475559      -0.01676989       2.61727696       0.00292300      -0.00615300       0.50632800       0.66706000      -0.00408000       0.37575000
Si       3.88234882       1.30689979       4.06541832       0.10736100       0.14235100       0.63456900      -0.32399000      -0.85006000      -0.08597000
Si       0.02991346       2.58822722       2.52787153       0.00862000       0.48598900      -0.00291400       0.17076000      -0.29830000       0.40420000
Si       1.35729944       3.90627093       3.85550264       0.13452500       0.61195000       0.12484100      -0.47098000       0.07641000      -0.29879000
Si       2.53082278       2.62391494       5.28784761      -0.01273400       0.51413900       0.49638000       0.02484000       0.13050000       0.13468000
Si       3.94428528       3.91333320       6.49492187       0.13017900       0.61762100       0.62357600       0.30364000       0.40832000      -0.18689000
Si       2.62833068       2.65426542      -0.00599021       0.50529800       0.00191000      -0.00304400       0.68718000      -0.24675000       0.48946000
Si       3.95568789       3.92691421       1.34209072       0.62490900       0.12549000       0.13100000      -0.27112000      -0.13861000       0.16691000
Si       5.13845036       2.59252310       2.76078797       0.47486500       0.02052000       0.50709000       0.49160000       0.67728000      -0.30262000
Si       6.59869196       3.92789831       3.93847874       0.62944600       0.12111600       0.63155700      -0.72084000       0.11562000      -0.67602000
Si       2.59018799       5.29670718       2.54100934       0.51076800       0.50141000      -0.01581400       0.10576000      -0.15940000       0.24534000
Si       3.89574999       6.56698454       3.90380561       0.62666400       0.62825200       0.11778000       0.27734000       0.25688000      -0.65178000
Si       5.25258346       5.27100466       5.14634495       0.51375300       0.49348800       0.49000100      -0.46549000      -0.36703000       0.57887000
Si       6.40050711       6.59201803       6.57851214       0.61280700       0.64686900       0.61031200       0.14544000      -0.11659000      -0.02262000
16
Lattice="5.233289 5.233324 -0.000133 0.000113 5.233079 5.233081 5.232873 0.000284 5.23291" Properties=species:S:1:pos:R:3:frac_pos:R:3:dft_force:R:3 opt_strategy_bias=3 num_dump_cycles=0 fix_occupancy=F castep_run_time=193.97 dft_virial="26.29029544 0.30397111 -0.77285412 0.30397111 26.1662931 0.57296096 -0.77285412 0.57296096 26.20558194" cutoff_factor=1.2 finite_basis_corr=automatic spin_polarized=F standardized_energy=-0.181290716960966 elec_energy_tol=1e-07 nextra_bands=200 cutoff=-1.0 energy_per_atom=-163.06549925 mixing_scheme=pulay smearing_width="0.05 eV" dft_energy=-2609.047988 centered_energy=-0.2922225136335328 in_file=md_sample_dia.xyz@274 nneightol=1.2 xc_functional=PW91 max_scf_cycles=250 fine_grid_scale=4 cut_off_energy="250 eV" task=SinglePoint popn_calculate=F castep_file_name=md_sample_dia.xyz-00274/eval.castep calculate_stress=T config_type=dia mix_history_length=20 kpoints_mp_grid="6 6 6" pbc="T T T"
Si       0.05147357      -0.08408227      -0.01934843      -0.00126700      -0.01480100       0.01110400      -0.05855000       0.13809000       0.55488000
Si       1.39539672       1.24682550       1.26345542       0.13172400       0.10652100       0.13492300      -0.54867000       0.07604000       0.18474000
Si       2.68045642       0.00168911       2.65024303       0.00303600      -0.00274100       0.50919800      -0.01577000      -0.26154000      -0.63022000
Si       3.87859526       1.24764696       4.05939262       0.10191100       0.13646500       0.63927600       0.22066000       0.57891000       0.13261000
Si       0.01473554       2.57513595       2.53034616       0.00568200       0.48640600      -0.00287700       0.38708000       0.08822000       0.01449000
Si       1.32066998       3.89497409       3.86899831       0.12865000       0.61563600       0.12370600       0.46061000      -0.13987000      -0.59112000
Si       2.55620658       2.62078669       5.30865164      -0.01259600       0.51338100       0.50107600       0.22573000       0.37791000      -0.35168000
Si       3.97329050       3.95820249       6.49610177       0.13711700       0.61922400       0.62215300      -0.36521000      -0.29175000       0.30201000
Si       2.64495592       2.63422036       0.00458493       0.50393800      -0.00058300       0.00147200      -0.27233000       0.61013000       0.17181000
Si       3.94258369       3.92894470       1.36383457       0.62174500       0.12900900       0.13162900       0.10314000      -0.10572000      -0.25344000
Si       5.17104415       2.60067306       2.74621205       0.48012800       0.01679000       0.50801800      -0.50399000      -0.14200000      -0.18484000
Si       6.56107968       3.92942658       3.88033802       0.63152400       0.11929500       0.62224300       0.12291000       0.07371000       0.74492000
Si       2.60447731       5.30897532       2.54551954       0.51285100       0.50162900      -0.01518800      -0.38105000      -0.50443000       0.55619000
Si       3.87693558       6.61414347       3.87639628       0.63196200       0.63191300       0.10885500       0.70631000      -0.62576000       0.00600000
Si       5.22634785       5.25503397       5.17370671       0.50708200       0.49706300       0.49162000       0.09618000       0.54838000      -0.39397000
Si       6.43317337       6.60089659       6.58088878       0.61652000       0.64479700       0.61279400      -0.17705000      -0.42034000      -0.26239000
16
Lattice="5.233531 5.233574 -0.000153 0.000113 5.233309 5.233309 5.233062 0.000316 5.233106" Properties=species:S:1:pos:R:3:frac_pos:R:3:dft_force:R:3 opt_strategy_bias=3 num_dump_cycles=0 fix_occupancy=F castep_run_time=503.16 dft_virial="26.23480964 0.91490189 1.28595762 0.91490189 26.33493613 1.70918683 1.28595762 1.70918683 26.33732994" cutoff_factor=1.2 finite_basis_corr=automatic spin_polarized=F standardized_energy=-0.19819250947357037 elec_energy_tol=1e-07 nextra_bands=360 cutoff=-1.0 energy_per_atom=-163.067202 mixing_scheme=pulay smearing_width=0.05 mix_charge_amp=0.05 dft_energy=-2609.075232 centered_energy=-0.3194665136338699 in_file=md_sample_dia.xyz@275 nneightol=1.2 xc_functional=PW91 max_scf_cycles=250 fine_grid_scale=4 cut_off_energy="250 eV" task=SinglePoint popn_calculate=F castep_file_name=md_sample_dia.xyz-00275/eval.castep calculate_stress=T config_type=dia mix_history_length=20 kpoints_mp_grid="6 6 6" pbc="T T T"
Si       0.06610200      -0.07945329      -0.00398516      -0.00089500      -0.01428800       0.01352700      -0.72576000      -0.35573000      -0.20438000
Si       1.33337680       1.23951536       1.26929360       0.12453600       0.11230100       0.13024900       0.74397000       0.21753000       0.03816000
Si       2.68189359       0.00197244       2.63635353       0.00452600      -0.00418000       0.50796400      -0.53253000      -0.15460000      -0.28739000
Si       3.87151489       1.25872415       4.04077550       0.10406500       0.13641300       0.63574100       0.65159000       0.46157000       0.19705000
Si       0.03209492       2.56716988       2.52019328       0.00754900       0.48299500      -0.00142700      -0.11002000       0.22971000       0.19854000
Si       1.32790436       3.87475796       3.84003678       0.13017000       0.61021900       0.12355800       0.10251000       0.03415000       0.25950000
Si       2.58912874       2.65666797       5.29674593      -0.00488600       0.51250200       0.49963900      -0.17684000      -0.17496000      -0.17421000
Si       3.97351383       3.96120950       6.52159182       0.13498200       0.62189600       0.62430200      -0.07264000      -0.10063000       0.00515000
Si       2.62860460       2.66822579       0.03959687       0.50225500       0.00757400       0.00000700      -0.38375000      -0.50534000      -0.87272000
Si       3.92751313       3.90142816       1.36182105       0.61783800       0.12762200       0.13262300       0.34358000       0.65896000      -0.16351000
Si       5.17691511       2.59937413       2.69634871       0.48530400       0.01133900       0.50392300      -0.25378000      -0.29717000       0.43225000
Si       6.52803098       3.95381303       3.89334968       0.62942100       0.12601900       0.61797900       0.32212000      -0.12679000       0.50540000
Si       2.60473601       5.27071217       2.59533146       0.50443600       0.50268600      -0.00674600      -0.12946000       0.04521000      -0.14686000
Si       3.92999478       6.58559163       3.87155980       0.63473400       0.62362600       0.11618900      -0.60081000       0.42840000       0.38216000
Si       5.20857338       5.29357655       5.18398636       0.50805800       0.50340300       0.48720600       0.36480000      -0.21690000      -0.05248000
Si       6.45370614       6.58279330       6.56837358       0.61791600       0.63988000       0.61527100       0.45704000      -0.14340000      -0.11668000
16
Lattice="5.233804 5.233855 -0.000134 0.000142 5.233579 5.233578 5.233287 0.000383 5.233338" Properties=species:S:1:pos:R:3:frac_pos:R:3:dft_force:R:3 opt_strategy_bias=3 num_dump_cycles=0 fix_occupancy=F castep_run_time=198.31 dft_virial="26.52186799 -1.00508464 0.34167202 -1.00508464 26.44621305 -1.7711676 0.34167202 -1.7711676 26.36766297" cutoff_factor=1.2 finite_basis_corr=automatic spin_polarized=F standardized_energy=-0.18052826273261594 elec_energy_tol=1e-07 nextra_bands=200 cutoff=-1.0 energy_per_atom=-163.0654224375 mixing_scheme=pulay smearing_width="0.05 eV" dft_energy=-2609.046759 centered_energy=-0.2909935136335662 in_file=md_sample_dia.xyz@276 nneightol=1.2 xc_functional=PW91 max_scf_cycles=250 fine_grid_scale=4 cut_off_energy="250 eV" task=SinglePoint popn_calculate=F castep_file_name=md_sample_dia.xyz-00276/eval.castep calculate_stress=T config_type=dia mix_history_length=20 kpoints_mp_grid="6 6 6" pbc="T T T"
Si       0.01174796      -0.10194310       0.00025499      -0.00864100      -0.01083800       0.01088700       0.55131000       0.35470000      -0.39225000
Si       1.34343410       1.25117203       1.28880394       0.12473900       0.11431100       0.13195500      -0.35733000       0.00136000      -0.56707000
Si       2.63747323      -0.00316731       2.59686456       0.00356100      -0.00420300       0.50041900       0.41554000      -0.02136000       0.91248000
Si       3.90540164       1.29892898       4.04060499       0.11115000       0.13698900       0.63509700      -0.20082000      -0.65264000      -0.44150000
Si       0.03074098       2.59756259       2.53208834       0.00918500       0.48714100      -0.00332500      -0.29047000      -0.53278000       0.26061000
Si       1.33640487       3.85502312       3.83830563       0.12925300       0.60732500       0.12608400      -0.36538000       0.44023000       0.68660000
Si       2.60700829       2.66462672       5.26468727       0.00064100       0.50846300       0.49750400       0.00494000      -0.13264000       0.32837000
Si       3.98146451       3.95659058       6.53221623       0.13427300       0.62167500       0.62649300      -0.17177000       0.34219000      -0.43786000
Si       2.58225850       2.66120638       0.01920976       0.49907900       0.00938200      -0.00569900       0.26379000      -0.24572000      -0.25191000
Si       3.93164247       3.91638790       1.33140215       0.62253500       0.12574200       0.12867600      -0.20077000      -0.31432000       0.42385000
Si       5.16812653       2.56180764       2.68051035       0.48236100       0.00707100       0.50514000       0.68630000       0.53060000      -0.00691000
Si       6.52282894       3.97541305       3.94470749       0.62604500       0.13347400       0.62030100      -0.16328000      -0.51071000      -0.76108000
Si       2.61386917       5.23645410       2.63218197       0.49848800       0.50203500       0.00091900       0.19011000       0.29698000      -0.46572000
Si       3.91381995       6.58699739       3.90402138       0.63018700       0.62837400       0.11760400      -0.45851000       0.69837000      -0.22308000
Si       5.22082318       5.32429009       5.17565612       0.51292800       0.50434200       0.48462600       0.15348000      -0.41148000       0.67457000
Si       6.52919397       6.55782906       6.55246809       0.62422500       0.62872600       0.62332400      -0.05717000       0.15722000       0.26090000
16
Lattice="5.234086 5.234143 -0.000133 0.000161 5.233849 5.233846 5.233537 0.000415 5.233592" Properties=species:S:1:pos:R:3:frac_pos:R:3:dft_force:R:3 opt_strategy_bias=3 num_dump_cycles=0 fix_occupancy=F castep_run_time=198.67 dft_virial="26.41611472 -0.76942022 -2.07982675 -0.76942022 26.39624833 -0.66972142 -2.07982675 -0.66972142 26.53948996" cutoff_factor=1.2 finite_basis_corr=automatic spin_polarized=F standardized_energy=-0.185498794285005 elec_energy_tol=1e-07 nextra_bands=200 cutoff=-1.0 energy_per_atom=-163.0659231875 mixing_scheme=pulay smearing_width="0.05 eV" dft_energy=-2609.054771 centered_energy=-0.29900551363380146 in_file=md_sample_dia.xyz@277 nneightol=1.2 xc_functional=PW91 max_scf_cycles=250 fine_grid_scale=4 cut_off_energy="250 eV" task=SinglePoint popn_calculate=F castep_file_name=md_sample_dia.xyz-00277/eval.castep calculate_stress=T config_type=dia mix_history_length=20 kpoints_mp_grid="6 6 6" pbc="T T T"
Si       0.00527500      -0.10199082      -0.02921636      -0.00644800      -0.01303900       0.00745700       0.10338000       0.60672000       0.45183000
Si       1.33117544       1.26543601       1.26949336       0.12676800       0.11499400       0.12757000      -0.48326000      -0.73040000       0.36602000
Si       2.64465179      -0.02039061       2.63385687      -0.00093400      -0.00300200       0.50626200      -0.15890000       0.24327000       0.07307000
Si       3.91908230       1.28758295       4.00332859       0.11492600       0.13102800       0.63389800      -0.14433000      -0.11198000      -0.25824000
Si       0.00257756       2.59152438       2.55514301       0.00371400       0.49143300      -0.00323700       0.00799000      -0.10190000       0.11191000
Si       1.30749865       3.86907570       3.89968473       0.12196200       0.61726200       0.12783700       0.23419000       0.15318000      -0.58464000
Si       2.63085689       2.66768642       5.26067830       0.00359200       0.50606700       0.49908400       0.37668000      -0.00915000       0.08146000
Si       3.99421909       3.99443309       6.51972977       0.14028900       0.62284600       0.62287400      -0.40123000      -0.35065000       0.20020000
Si       2.54789511       2.61263889      -0.01269835       0.49417800       0.00497600      -0.00739000       0.03957000       1.09595000       0.67674000
Si       3.91852711       3.90200189       1.31529708       0.62141200       0.12407500       0.12725300      -0.06460000      -0.50640000       0.20751000
Si       5.21769659       2.55954448       2.65921207       0.48888700       0.00008200       0.50803500       0.03154000       0.27931000      -0.35467000
Si       6.50266602       3.94186882       3.93117883       0.62217100       0.13089400       0.62025900      -0.19637000       0.17770000      -0.28516000
Si       2.63003029       5.24090026       2.61833726       0.50175100       0.49956800       0.00071500       0.10347000      -0.27054000       0.36789000
Si       3.84926961       6.65167153       3.93399320       0.62730000       0.64355100       0.10811500       1.03157000      -1.07478000      -0.60563000
Si       5.23536868       5.31944624       5.22761364       0.50886100       0.50742600       0.49142000       0.08749000       0.47733000      -0.57509000
Si       6.60220313       6.56068949       6.55095582       0.63158000       0.62184600       0.62985300      -0.56721000       0.12233000       0.12680000
16
Lattice="5.23438 5.234443 -0.000169 0.000146 5.234127 5.234125 5.233783 0.000428 5.233843" Properties=species:S:1:pos:R:3:frac_pos:R:3:dft_force:R:3 opt_strategy_bias=3 num_dump_cycles=0 fix_occupancy=F castep_run_time=194.08 dft_virial="26.40447909 1.63697568 0.92897874 1.63697568 26.2843559 1.57820459 0.92897874 1.57820459 26.34107935" cutoff_factor=1.2 finite_basis_corr=automatic spin_polarized=F standardized_energy=-0.17254017433201932 elec_energy_tol=1e-07 nextra_bands=200 cutoff=-1.0 energy_per_atom=-163.0646176875 mixing_scheme=pulay smearing_width="0.05 eV" dft_energy=-2609.033883 centered_energy=-0.2781175136337879 in_file=md_sample_dia.xyz@278 nneightol=1.2 xc_functional=PW91 max_scf_cycles=250 fine_grid_scale=4 cut_off_energy="250 eV" task=SinglePoint popn_calculate=F castep_file_name=md_sample_dia.xyz-00278/eval.castep calculate_stress=T config_type=dia mix_history_length=20 kpoints_mp_grid="6 6 6" pbc="T T T"
Si       0.01080632      -0.04961339      -0.03748740      -0.00012600      -0.00935300       0.00219100      -0.72960000      -0.72903000       0.24580000
Si       1.26964972       1.20882355       1.27066456       0.11536400       0.11556900       0.12720700       0.64582000       0.47964000       0.90445000
Si       2.63435236      -0.03361714       2.67777690      -0.00737700       0.00091300       0.51071400      -0.35783000       0.20372000      -0.99738000
Si       3.92140602       1.26123484       3.94875568       0.11783700       0.12306800       0.63139500       0.18815000       1.02790000       0.13816000
Si      -0.02158223       2.56756301       2.58515602      -0.00374900       0.49429200      -0.00038800       0.29533000       0.45040000      -0.38311000
Si       1.29832996       3.88571473       3.90777819       0.12189600       0.62046700       0.12614000       0.50983000      -0.19867000      -0.44065000
Si       2.67879636       2.67756836       5.27480249       0.00776600       0.50375200       0.50404700      -0.13667000      -0.22636000      -0.68486000
Si       3.97807522       4.01003297       6.51971026       0.14023100       0.62584200       0.61981200       0.24552000      -0.23392000       0.57354000
Si       2.50771716       2.65048688       0.01561755       0.49122100       0.01513600      -0.01213700       0.17076000      -0.23250000       0.19383000
Si       3.92078237       3.85723258       1.31962739       0.61690000       0.11999100       0.13215600       0.10758000       0.50665000      -0.26921000
Si       5.26503840       2.58471427       2.61531220       0.49997700      -0.00622900       0.50593800      -0.77243000      -0.47829000       0.07998000
Si       6.48171405       3.93605789       3.89338679       0.62318700       0.12872400       0.61517600      -0.11915000       0.42852000       0.69642000
Si       2.66513753       5.23010654       2.63193486       0.50274500       0.49645600       0.00640200      -0.35920000      -0.29514000       0.02094000
Si       3.86621293       6.62993253       3.93599256       0.62661400       0.64001300       0.11200000       0.02787000      -0.32956000       0.31291000
Si       5.24892247       5.34333200       5.22600183       0.51256100       0.50823200       0.49025900       0.12479000       0.07613000      -0.34503000
Si       6.61627009       6.58551461       6.55403840       0.63496300       0.62313500       0.62909400       0.15923000      -0.44948000      -0.04579000
16
Lattice="5.234713 5.23478 -0.000179 0.000158 5.234443 5.234442 5.234055 0.000479 5.23412" Properties=species:S:1:pos:R:3:frac_pos:R:3:dft_force:R:3 opt_strategy_bias=3 num_dump_cycles=0 fix_occupancy=F castep_run_time=492.66 dft_virial="26.15419655 -0.69073221 0.60548472 -0.69073221 25.98993862 0.67513062 0.60548472 0.67513062 26.11389021" cutoff_factor=1.2 finite_basis_corr=automatic spin_polarized=F standardized_energy=-0.18637291796909708 elec_energy_tol=1e-07 nextra_bands=360 cutoff=-1.0 energy_per_atom=-163.06601125 mixing_scheme=pulay smearing_width=0.05 mix_charge_amp=0.05 dft_energy=-2609.05618 centered_energy=-0.30041451363376837 in_file=md_sample_dia.xyz@279 nneightol=1.2 xc_functional=PW91 max_scf_cycles=250 fine_grid_scale=4 cut_off_energy="250 eV" task=SinglePoint popn_calculate=F castep_file_name=md_sample_dia.xyz-00279/eval.castep calculate_stress=T config_type=dia mix_history_length=20 kpoints_mp_grid="6 6 6" pbc="T T T"
Si      -0.05468126      -0.06345044      -0.02582987      -0.00881600      -0.00330500      -0.00163000       0.55073000      -0.18562000      -0.17783000
Si       1.25828734       1.18470694       1.33716489       0.10561500       0.12069500       0.13477200       0.06648000       0.65274000      -0.50495000
Si       2.61264763      -0.03345934       2.64557660      -0.00636100      -0.00007700       0.50552500       0.32590000       0.17426000       0.01735000
Si       3.93345743       1.30092857       3.92587958       0.12495400       0.12351300       0.62653900      -0.13246000       0.12311000      -0.10726000
Si      -0.01817956       2.58016027       2.58404593      -0.00211500       0.49503500      -0.00137300       0.07065000       0.02981000       0.26756000
Si       1.31327277       3.88204923       3.89587457       0.12410100       0.61751500       0.12677400       0.11495000       0.05276000       0.13640000
Si       2.71305984       2.67127285       5.25318369       0.01249900       0.49778000       0.50583200      -0.45178000       0.10317000      -0.27696000
Si       3.98458697       3.99736597       6.55522725       0.13623800       0.62736200       0.62500700       0.51632000       0.28815000      -0.44222000
Si       2.48454238       2.66652070       0.05624982       0.48662600       0.02276200      -0.01200000      -0.02871000      -0.78202000      -0.42475000
Si       3.92552222       3.85815005       1.30455786       0.61883900       0.11817900       0.13107600      -0.16139000       0.14076000      -0.14734000
Si       5.24487733       2.57617882       2.57963790       0.50060900      -0.00852800       0.50139600       0.14575000       0.01250000       0.46745000
Si       6.45787439       3.98441073       3.90764787       0.62412300       0.13697200       0.60961300       0.18940000      -0.79425000       0.07574000
Si       2.69188966       5.19181598       2.62751234       0.50203200       0.48979100       0.01219300      -0.64276000       0.28195000       0.08653000
Si       3.87300432       6.59473247       3.95190158       0.62233900       0.63748300       0.11752600      -0.42706000       0.57714000       0.16113000
Si       5.28771898       5.37416222       5.19706870       0.52193900       0.50467500       0.48823300      -0.62631000      -0.29815000       0.75829000
Si       6.63684376       6.58308015       6.54631050       0.63738900       0.62015900       0.63052400       0.49029000      -0.37632000       0.11088000
16
Lattice="5.235056 5.235123 -0.00017 0.000171 5.234781 5.234784 5.234355 0.000532 5.234424" Properties=species:S:1:pos:R:3:frac_pos:R:3:dft_force:R:3 opt_strategy_bias=3 num_dump_cycles=0 fix_occupancy=F castep_run_time=194.38 dft_virial="26.09376503 -1.84061663 -0.69729597 -1.84061663 26.01446455 -2.03203789 -0.69729597 -2.03203789 25.99467032" cutoff_factor=1.2 finite_basis_corr=automatic spin_polarized=F standardized_energy=-0.16986507048111976 elec_energy_tol=1e-07 nextra_bands=200 cutoff=-1.0 energy_per_atom=-163.0643481875 mixing_scheme=pulay smearing_width="0.05 eV" dft_energy=-2609.029571 centered_energy=-0.2738055136337607 in_file=md_sample_dia.xyz@280 nneightol=1.2 xc_functional=PW91 max_scf_cycles=250 fine_grid_scale=4 cut_off_energy="250 eV" task=SinglePoint popn_calculate=F castep_file_name=md_sample_dia.xyz-00280/eval.castep calculate_stress=T config_type=dia mix_history_length=20 kpoints_mp_grid="6 6 6" pbc="T T T"
Si      -0.06366307      -0.07906540      -0.03414932      -0.01037000      -0.00473300      -0.00179100       0.78923000       0.50809000      -0.07384000
Si       1.27233282       1.21955640       1.36917438       0.10722000       0.12573100       0.13583500      -1.01279000       0.18359000      -1.09728000
Si       2.62177459      -0.00608387       2.58508637       0.00290100      -0.00411400       0.49797700       0.58310000      -0.32488000       1.13825000
Si       3.93559945       1.34488684       3.91537776       0.13034900       0.12649300       0.62150800      -0.12126000      -0.70006000      -0.16048000
Si      -0.02543841       2.60558900       2.59609836      -0.00153100       0.49927700      -0.00334500       0.08580000      -0.38558000       0.76929000
Si       1.34527482       3.86880998       3.91456013       0.12409900       0.61493800       0.13287300      -0.83914000       0.42084000      -0.17066000
Si       2.68652773       2.67649995       5.22337315       0.01330800       0.49793200       0.49992300       0.41289000       0.01548000       0.66881000
Si       4.02741890       4.00285415       6.55083600       0.14126000       0.62333200       0.62812100      -0.53968000      -0.20745000      -0.46756000
Si       2.46306803       2.62164822       0.04691993       0.48114900       0.01963400      -0.01065600      -0.01374000       0.09062000      -0.21979000
Si       3.91351132       3.84865542       1.27493205       0.61957400       0.11558100       0.12799800      -0.18166000      -0.07345000       0.21903000
Si       5.25607651       2.56587417       2.56997090       0.50158300      -0.01150800       0.50250000       0.35448000       0.45516000       0.21411000
Si       6.47289813       3.98425462       3.91757955       0.62455100       0.13645800       0.61197900       0.08811000      -0.31265000      -0.27955000
Si       2.67141901       5.17039224       2.63726821       0.49706600       0.49060000       0.01321400       0.09209000       0.38415000      -0.02105000
Si       3.83256733       6.61099966       3.97952499       0.61735100       0.64549600       0.11474000       0.38577000      -0.12234000      -0.29696000
Si       5.26742241       5.35738292       5.25261589       0.51305600       0.51028100       0.49317600      -0.15422000       0.17706000      -0.39388000
Si       6.67122513       6.56004612       6.54612111       0.63844600       0.61461300       0.63595600       0.07103000      -0.10857000       0.17156000
16
Lattice="5.23539 5.235455 -0.000195 0.000152 5.235107 5.235115 5.23466 0.000535 5.234732" Properties=species:S:1:pos:R:3:frac_pos:R:3:dft_force:R:3 opt_strategy_bias=3 num_dump_cycles=0 fix_occupancy=F castep_run_time=499.35 dft_virial="25.76917253 0.67538752 0.02610718 0.67538752 25.9700624 0.32488731 0.02610718 0.32488731 26.04877254" cutoff_factor=1.2 finite_basis_corr=automatic spin_polarized=F standardized_energy=-0.16480272182090813 elec_energy_tol=1e-07 nextra_bands=360 cutoff=-1.0 energy_per_atom=-163.0638381875 mixing_scheme=pulay smearing_width=0.05 mix_charge_amp=0.05 dft_energy=-2609.021411 centered_energy=-0.2656455136338991 in_file=md_sample_dia.xyz@281 nneightol=1.2 xc_functional=PW91 max_scf_cycles=250 fine_grid_scale=4 cut_off_energy="250 eV" task=SinglePoint popn_calculate=F castep_file_name=md_sample_dia.xyz-00281/eval.castep calculate_stress=T config_type=dia mix_history_length=20 kpoints_mp_grid="6 6 6" pbc="T T T"
Si       0.02188741      -0.03077043      -0.04857752       0.00379100      -0.00966900       0.00039000      -1.15596000      -0.39037000       0.29244000
Si       1.22086570       1.26260755       1.31578304       0.11150900       0.12965200       0.12169900       0.42518000      -0.42989000       0.90792000
Si       2.66749999      -0.02064738       2.61728956       0.00280100      -0.00679700       0.50678300      -0.64925000       0.40889000      -0.09299000
Si       3.93426405       1.33586419       3.91703688       0.12919300       0.12590900       0.62236500       0.24502000      -0.03188000       0.03872000
Si      -0.04802543       2.60168257       2.64261992      -0.00850300       0.50547200      -0.00068500      -0.05225000      -0.09534000      -0.18840000
Si       1.31146808       3.86142211       3.93348178       0.11835100       0.61922900       0.13215000      -0.16865000       0.28555000      -0.29954000
Si       2.69252419       2.71240336       5.24993509       0.01477300       0.50329300       0.49957500       0.09643000      -0.86812000      -0.02612000
Si       4.01359667       3.99573861       6.51356692       0.14281200       0.62037300       0.62388500      -0.00480000      -0.12182000       0.58265000
Si       2.44348376       2.59428109       0.01142874       0.48002300       0.01550100      -0.01330100       0.36219000       0.57809000       0.20983000
Si       3.89110250       3.83149069       1.26620034       0.61658800       0.11524200       0.12665700       0.38017000       0.54721000       0.01115000
Si       5.28997507       2.57211911       2.56879358       0.50549600      -0.01426000       0.50500100      -0.26825000       0.20715000      -0.01394000
Si       6.49705620       3.96272199       3.90745149       0.62572800       0.13111900       0.61534200      -0.26466000       0.31496000      -0.18148000
Si       2.64792638       5.17294079       2.67449277       0.49147900       0.49661200       0.01428300       0.42969000      -0.22918000      -0.47583000
Si       3.82245204       6.61080199       3.97803680       0.61646900       0.64626100       0.11364600       0.39747000      -0.44372000      -0.16318000
Si       5.24381044       5.34940575       5.24637079       0.51060300       0.51114600       0.49105900       0.63422000       0.28840000      -0.46850000
Si       6.70120149       6.54350155       6.55443358       0.63889400       0.61092500       0.64115900      -0.40655000      -0.01993000      -0.13275000
16
Lattice="5.23574 5.235805 -0.000222 0.000139 5.235444 5.235458 5.234973 0.000544 5.235053" Properties=species:S:1:pos:R:3:frac_pos:R:3:dft_force:R:3 opt_strategy_bias=3 num_dump_cycles=0 fix_occupancy=F castep_run_time=198.11 dft_virial="25.60195963 0.43007695 0.67380705 0.43007695 26.0097378 0.52320381 0.67380705 0.52320381 25.96749566" cutoff_factor=1.2 finite_basis_corr=automatic spin_polarized=F standardized_energy=-0.20085458522112135 elec_energy_tol=1e-07 nextra_bands=200 cutoff=-1.0 energy_per_atom=-163.0674701875 mixing_scheme=pulay smearing_width="0.05 eV" dft_energy=-2609.079523 centered_energy=-0.32375751363360905 in_file=md_sample_dia.xyz@282 nneightol=1.2 xc_functional=PW91 max_scf_cycles=250 fine_grid_scale=4 cut_off_energy="250 eV" task=SinglePoint popn_calculate=F castep_file_name=md_sample_dia.xyz-00282/eval.castep calculate_stress=T config_type=dia mix_history_length=20 kpoints_mp_grid="6 6 6" pbc="T T T"
Si       0.02106200      -0.01017085      -0.02195857       0.00313700      -0.00508000       0.00088600      -0.74655000      -0.43615000       0.18135000
Si       1.20743325       1.27423992       1.34649147       0.10839700       0.13497000       0.12223100       0.95132000      -0.07852000       0.55312000
Si       2.65113081      -0.01846729       2.63853368      -0.00058300      -0.00299700       0.50701000      -0.06551000       0.51478000      -0.57081000
Si       3.96808978       1.31563685       3.92542022       0.12968200       0.12153800       0.62829200      -0.06643000       0.28484000      -0.29201000
Si      -0.07268872       2.59787946       2.64642282      -0.01158300       0.50779400      -0.00231400       0.07350000       0.31280000      -0.15829000
Si       1.28221488       3.87370197       3.94882369       0.11525800       0.62462000       0.12964100       0.33422000      -0.22903000      -0.12024000
Si       2.69667879       2.65518793       5.25725042       0.00900700       0.49809600       0.50610600      -0.21304000      -0.28598000      -0.34469000
Si       3.99134191       3.97949942       6.50950618       0.13951500       0.62051800       0.62288600       0.28966000       0.52806000       0.11145000
Si       2.45449734       2.61377861      -0.00116407       0.48410600       0.01510900      -0.01531200       0.37930000       0.09106000       0.39341000
Si       3.90037614       3.87799097       1.25754726       0.62269800       0.11796500       0.12226900       0.12418000      -0.03508000      -0.09371000
Si       5.27552927       2.61053870       2.56609590       0.50800800      -0.00946700       0.49966500      -0.10005000      -0.38174000      -0.29955000
Si       6.50471898       3.96766081       3.88093972       0.62942000       0.12831900       0.61303500      -0.31687000       0.10055000       0.20339000
Si       2.66363772       5.15226706       2.68198787       0.49025600       0.49382100       0.01847500      -0.07747000      -0.23029000      -0.33900000
Si       3.83987010       6.57862676       3.96201565       0.61654800       0.63995300       0.11684800      -0.22707000       0.20046000       0.06114000
Si       5.26785241       5.37327412       5.18743507       0.52077200       0.50546800       0.48541900       0.35515000      -0.56175000       0.65356000
Si       6.70261481       6.51743051       6.56620238       0.63537200       0.60938400       0.64487200      -0.69434000       0.20601000       0.06088000
16
Lattice="5.236103 5.236176 -0.000236 0.000138 5.235801 5.235821 5.235301 0.000566 5.235393" Properties=species:S:1:pos:R:3:frac_pos:R:3:dft_force:R:3 opt_strategy_bias=3 num_dump_cycles=0 fix_occupancy=F castep_run_time=193.02 dft_virial="25.71754242 -0.90994528 -0.14922907 -0.90994528 25.71121638 -1.60575817 -0.14922907 -1.60575817 25.80654597" cutoff_factor=1.2 finite_basis_corr=automatic spin_polarized=F standardized_energy=-0.16174918259218476 elec_energy_tol=1e-07 nextra_bands=200 cutoff=-1.0 energy_per_atom=-163.0635305625 mixing_scheme=pulay smearing_width="0.05 eV" dft_energy=-2609.016489 centered_energy=-0.2607235136338204 in_file=md_sample_dia.xyz@283 nneightol=1.2 xc_functional=PW91 max_scf_cycles=250 fine_grid_scale=4 cut_off_energy="250 eV" task=SinglePoint popn_calculate=F castep_file_name=md_sample_dia.xyz-00283/eval.castep calculate_stress=T config_type=dia mix_history_length=20 kpoints_mp_grid="6 6 6" pbc="T T T"
Si      -0.02599974      -0.03998706       0.01943593      -0.00815700       0.00052000       0.00319200       1.25072000       0.65569000      -0.41776000
Si       1.25846723       1.28572462       1.42171013       0.10717600       0.13836600       0.13318500      -0.61933000       0.47510000      -1.06825000
Si       2.62732393       0.02610611       2.60352325       0.00474300       0.00018900       0.49710400       1.00318000      -0.26784000       0.35960000
Si       4.01693088       1.31418062       3.90157299       0.13647400       0.11444700       0.63078000      -0.43510000      -0.04218000      -0.17548000
Si      -0.11777876       2.63356046       2.62268277      -0.01021300       0.51320600      -0.01229600       0.56695000      -0.15295000       0.43247000
Si       1.29630123       3.84576713       3.95184548       0.11363900       0.62085200       0.13393500      -0.13451000      -0.16059000       0.24760000
Si       2.69436438       2.57063986       5.24380041       0.00199600       0.48892200       0.51264400      -0.07827000       0.36672000       0.24803000
Si       3.99048803       3.99979196       6.51079511       0.14123800       0.62261600       0.62095100      -0.42659000       0.32576000      -0.80529000
Si       2.47906758       2.64738540       0.02252015       0.48736500       0.01823300      -0.01391100      -0.08783000      -0.49915000      -0.23124000
Si       3.90235936       3.91650805       1.23058101       0.62909600       0.11887100       0.11619800      -0.32487000      -0.71689000       0.30595000
Si       5.24466765       2.64066910       2.53116794       0.51123700      -0.00697800       0.49047400       0.18241000      -0.16638000       0.15858000
Si       6.50673274       3.98590655       3.85664631       0.63362900       0.12753900       0.60912800       0.01164000      -0.34775000       0.25816000
Si       2.66597573       5.10814812       2.66020173       0.48831200       0.48727000       0.02083100      -0.28481000       0.41422000       0.41547000
Si       3.84125640       6.56507577       3.95600109       0.61591700       0.63790800       0.11769400      -0.10577000       0.05708000       0.28706000
Si       5.32716726       5.36234963       5.20070460       0.52408800       0.49999100       0.49336600      -0.67232000      -0.34382000       0.20959000
Si       6.65047511       6.50098816       6.62179534       0.62346900       0.61805800       0.64673300       0.15449000       0.40300000      -0.22449000
16
Lattice="5.236463 5.236543 -0.00027 0.000124 5.236148 5.236174 5.235636 0.000557 5.235742" Properties=species:S:1:pos:R:3:frac_pos:R:3:dft_force:R:3 opt_strategy_bias=3 num_dump_cycles=0 fix_occupancy=F castep_run_time=194.18 dft_virial="25.52807946 -0.58805865 -0.21826056 -0.58805865 25.27225438 0.9747243 -0.21826056 0.9747243 25.44096769" cutoff_factor=1.2 finite_basis_corr=automatic spin_polarized=F standardized_energy=-0.18531702122645707 elec_energy_tol=1e-07 nextra_bands=200 cutoff=-1.0 energy_per_atom=-163.065904875 mixing_scheme=pulay smearing_width="0.05 eV" dft_energy=-2609.054478 centered_energy=-0.2987125136337454 in_file=md_sample_dia.xyz@284 nneightol=1.2 xc_functional=PW91 max_scf_cycles=250 fine_grid_scale=4 cut_off_energy="250 eV" task=SinglePoint popn_calculate=F castep_file_name=md_sample_dia.xyz-00284/eval.castep calculate_stress=T config_type=dia mix_history_length=20 kpoints_mp_grid="6 6 6" pbc="T T T"
Si       0.02054511      -0.00750660       0.00332866       0.00092700      -0.00236100       0.00299700       0.56122000       0.05771000       0.08611000
Si       1.26581552       1.33945498       1.42425265       0.11275800       0.14302900       0.12899000      -0.25532000      -0.32059000      -0.69897000
Si       2.69395945       0.03195268       2.58692631       0.01324900      -0.00720100       0.50129200      -0.54482000      -0.14910000       0.18730000
Si       4.00631574       1.30751405       3.87529300       0.13732500       0.11230700       0.62785200       0.14205000       0.07719000       0.37699000
Si      -0.11370314       2.64900367       2.62421610      -0.00849400       0.51440300      -0.01323400      -0.35217000      -0.10643000       0.29992000
Si       1.29420887       3.78756781       3.97700439       0.10547300       0.61785400       0.14168800       0.01905000       0.49909000       0.11532000
Si       2.70792105       2.54940196       5.25382692       0.00030700       0.48652300       0.51689100      -0.35200000       0.00161000       0.20969000
Si       3.96159560       4.02670756       6.45540195       0.14633100       0.62261400       0.61029100       0.08824000      -0.64320000       0.02318000
Si       2.48436404       2.63946561       0.01317921       0.48797100       0.01607900      -0.01353800      -0.27288000      -0.08710000      -0.31189000
Si       3.88870442       3.89995435       1.22908769       0.62630900       0.11844500       0.11632700      -0.08363000       0.47201000      -0.13080000
Si       5.21015630       2.63699780       2.50514631       0.51004000      -0.00651600       0.48501300       0.62350000       0.26412000       0.75147000
Si       6.51922328       4.00322233       3.85481880       0.63660500       0.12781800       0.60845500      -0.00402000      -0.53755000      -0.22812000
Si       2.64495481       5.11022260       2.68634734       0.48397200       0.49194000       0.02112300      -0.24200000       0.07072000       0.21560000
Si       3.82394436       6.55693382       3.98578949       0.61059900       0.64158600       0.11965800       0.59343000      -0.09123000      -0.08010000
Si       5.33408469       5.32987169       5.24486061       0.51739500       0.50041200       0.50131500      -0.59557000       0.21167000      -0.71217000
Si       6.61912438       6.50558042       6.63885005       0.61924300       0.62307800       0.64488900       0.67494000       0.28109000      -0.10353000
16
Lattice="5.197852 5.197851 8e-06 6e-06 5.197853 5.197853 5.197864 -3e-06 5.197863" Properties=species:S:1:pos:R:3:frac_pos:R:3:dft_force:R:3 opt_strategy_bias=3 num_dump_cycles=0 fix_occupancy=F castep_run_time=195.89 dft_virial="31.30010598 0.08680578 -0.80306301 0.08680578 31.22907032 0.19138712 -0.80306301 0.19138712 31.2997992" cutoff_factor=1.2 finite_basis_corr=automatic spin_polarized=F standardized_energy=0.10259351226815869 elec_energy_tol=1e-07 nextra_bands=200 cutoff=-1.0 energy_per_atom=-163.0368996875 mixing_scheme=pulay smearing_width="0.05 eV" dft_energy=-2608.590395 centered_energy=0.16537048636610052 in_file=md_sample_dia.xyz@285 nneightol=1.2 xc_functional=PW91 max_scf_cycles=250 fine_grid_scale=4 cut_off_energy="250 eV" task=SinglePoint popn_calculate=F castep_file_name=md_sample_dia.xyz-00285/eval.castep calculate_stress=T config_type=dia mix_history_length=20 kpoints_mp_grid="6 6 6" pbc="T T T"
Si       0.05179660       0.01841597      -0.01015652       0.00773100      -0.00418800       0.00223400      -0.03503000       0.04682000      -0.07217000
Si       1.32320385       1.33079527       1.30924270       0.12935700       0.12667100       0.12521000       0.06609000      -0.19817000       0.05739000
Si       2.56564502      -0.01530397       2.63997370      -0.00862200       0.00567800       0.50221800      -0.27753000       0.04029000       0.15555000
Si       3.89124502       1.29958068       3.91091862       0.12311900       0.12690400       0.62550500      -0.06446000      -0.41998000       0.11369000
Si      -0.05033826       2.58116026       2.57398191      -0.00415200       0.50073400      -0.00553300       0.10420000       0.09623000       0.10094000
Si       1.28441520       3.88012388       3.85392953       0.12607200       0.62041400       0.12103200      -0.01736000      -0.14682000       0.15599000
Si       2.61748092       2.62561077       5.19235870       0.00488000       0.50025400       0.49868800      -0.19020000       0.23049000      -0.19150000
Si       3.87599749       3.93966899       6.50661722       0.12592200       0.63202000       0.61976800       0.06438000      -0.04146000       0.04528000
Si       2.59576567       2.63776386      -0.00736657       0.50414100       0.00333100      -0.00474900       0.19710000      -0.18885000       0.11828000
Si       3.92552399       3.92654489       1.27473295       0.63269800       0.12271900       0.12252200      -0.10171000       0.08798000       0.08791000
Si       5.15501204       2.53561417       2.55202481       0.49430100      -0.00648100       0.49745600       0.08445000       0.35473000      -0.02173000
Si       6.42337340       3.83241550       3.89500669       0.61186700       0.12544100       0.62390600       0.15955000       0.26340000      -0.43527000
Si       2.63002262       5.19503475       2.62946275       0.49978300       0.49967500       0.00619900      -0.06602000      -0.04562000      -0.31979000
Si       3.90460056       6.49016757       3.93628317       0.62126500       0.62736000       0.12992900       0.09886000       0.04610000       0.16784000
Si       5.23183423       5.18690900       5.22174620       0.49991800       0.49797700       0.50661800      -0.02737000       0.31232000       0.06861000
Si       6.55304205       6.51401900       6.49987974       0.63172100       0.62149300       0.62899800       0.00507000      -0.43743000      -0.03101000
16
Lattice="5.197907 5.197904 6e-06 3e-06 5.197906 5.197907 5.197916 -3e-06 5.197914" Properties=species:S:1:pos:R:3:frac_pos:R:3:dft_force:R:3 opt_strategy_bias=3 num_dump_cycles=0 fix_occupancy=F castep_run_time=195.27 dft_virial="31.04444671 0.878221 0.42019664 0.878221 30.93488165 -0.95466884 0.42019664 -0.95466884 31.14746231" cutoff_factor=1.2 finite_basis_corr=automatic spin_polarized=F standardized_energy=0.16815340896255318 elec_energy_tol=1e-07 nextra_bands=200 cutoff=-1.0 energy_per_atom=-163.0302949375 mixing_scheme=pulay smearing_width="0.05 eV" dft_energy=-2608.484719 centered_energy=0.27104648636623097 in_file=md_sample_dia.xyz@286 nneightol=1.2 xc_functional=PW91 max_scf_cycles=250 fine_grid_scale=4 cut_off_energy="250 eV" task=SinglePoint popn_calculate=F castep_file_name=md_sample_dia.xyz-00286/eval.castep calculate_stress=T config_type=dia mix_history_length=20 kpoints_mp_grid="6 6 6" pbc="T T T"
Si       0.06990145       0.04403663      -0.01677876       0.01257400      -0.00410200       0.00087400      -0.33357000      -0.50270000      -0.13946000
Si       1.33378967       1.30725712       1.31727605       0.12733700       0.12416000       0.12926400       0.14024000      -0.07773000       0.07248000
Si       2.53211818      -0.01790826       2.68309025      -0.01624500       0.01280000       0.50338600      -0.06359000      -0.43743000      -0.20745000
Si       3.86415086       1.28642245       3.91319219       0.11902700       0.12846200       0.62437700       0.42062000      -0.30930000       0.04578000
Si      -0.05277810       2.54115231       2.55023865      -0.00595100       0.49483100      -0.00420300       0.08678000       0.97403000       0.08974000
Si       1.29185437       3.87525662       3.84900497       0.12679200       0.61875000       0.12174100      -0.44366000      -0.06681000      -0.26720000
Si       2.61650239       2.62866793       5.16364591       0.00784200       0.49787500       0.49553300       0.20910000       0.76917000       0.23436000
Si       3.87099795       3.97367748       6.50838761       0.12854100       0.63593600       0.61618000       0.03232000      -0.34115000       0.13376000
Si       2.57761088       2.63582596       0.02047233       0.49952500       0.00756900      -0.00363100       0.73077000      -0.09075000      -0.21289000
Si       3.93071074       3.94640454       1.29275532       0.63336700       0.12586300       0.12284300      -0.16356000       0.15160000      -0.24878000
Si       5.13564051       2.51106433       2.53449548       0.49175700      -0.00866500       0.49626300       0.23872000       0.07099000      -0.21301000
Si       6.40146236       3.79047630       3.88112404       0.60705400       0.12217800       0.62449100      -0.11853000       0.53848000       0.18987000
Si       2.62576584       5.23243468       2.63139667       0.50278000       0.50386300       0.00237800       0.12894000      -0.69181000      -0.04732000
Si       3.92352880       6.48946445       3.92798501       0.62381000       0.62466700       0.13101800      -0.22354000       0.31434000       0.76352000
Si       5.25571380       5.22655953       5.24661276       0.50363200       0.50188100       0.50748800      -0.14931000      -0.50602000      -0.52850000
Si       6.60217589       6.50826894       6.47624692       0.63816100       0.61393400       0.63199800      -0.49174000       0.20509000       0.33512000
