2
Lattice="2.629926351845304 -0.04785823092614668 0.02537443988704064 -1.3445888141153817 2.382971530268918 -0.037215215167910695 0.15473130833198134 0.06351951468435664 4.712459971853472" Properties=species:S:1:pos:R:3:dft_force:R:3 dft_energy=-229.2545424954842 volume=29.224897460054073 dft_virial="-0.000966226304303539 -0.00031419497182618307 0.0012220127936779601 -0.0003141949718261831 0.0012414535812933444 -0.00032263281578511594 0.0012220127936779601 -0.000322632815785116 0.0013665612092294021" id=2358 pbc="T T T"
Si       0.04967191      -0.01382616       0.06477059      -0.08406797       0.13538002      -2.20755239
Si       0.15230248       1.52521824       2.30291979       0.08406817      -0.13538004       2.20755262
2
Lattice="2.6648808979142027 0.092156133271259 0.012697674939353492 -1.3341304282835615 2.343200626119575 -0.02226959112447522 -0.10774358705889384 -0.04671065138351344 4.564310150898446" Properties=species:S:1:pos:R:3:dft_force:R:3 dft_energy=-229.2779222442756 volume=29.063773007852625 dft_virial="0.0007672221549939885 9.3694051875495e-05 0.00029763945714572014 9.369405187549518e-05 0.002064796424896601 0.0002317215581556123 0.00029763945714572025 0.00023172155815561236 -0.0004522300202236141" id=2374 pbc="T T T"
Si       0.04967147      -0.01382714       0.06476864      -0.36248331       0.10998100      -0.56686082
Si       0.15230243       1.52521851       2.30291997       0.36248340      -0.10998118       0.56686084
2
Lattice="3.712047520566921 0.0 0.0 1.6837603289388907 3.175179734535077 0.0 2.0318241902183636 1.1347995477266983 3.0258737940408205" Properties=species:S:1:pos:R:3:dft_force:R:3 dft_energy=-229.97758739604453 volume=35.66421353619345 dft_virial="-0.011120703826942052 0.26472781521395705 0.33922945132392557 0.26472781521395705 -0.01763135843392272 0.18935676141348087 0.33922945132392557 0.1893567614134809 -0.014994349153303606" id=244 pbc="T T T"
Si       0.00000000       0.00000000       0.00000000       3.57129967       5.01095268       3.74496692
Si       1.89292210       1.09287883       0.77278396      -3.57129947      -5.01095233      -3.74496659
4
Lattice="3.9019863448669803 0.03270203696663366 -0.024494730237648102 0.11959559233528819 3.9752256756775135 0.00998338602113081 0.03780907493122843 -0.014211724335930518 3.9422329088267496" Properties=species:S:1:pos:R:3:dft_force:R:3 dft_energy=-458.33413511247994 volume=61.13793489786503 dft_virial="0.001803993814232967 8.617612982654946e-05 0.0003065257336511037 8.617612982654944e-05 0.0014659028381537847 -7.063350446856436e-05 0.0003065257336511036 -7.063350446856436e-05 0.0027065130212479064" id=2296 pbc="T T T"
Si       0.04967254      -0.01382485       0.06476814       2.09130822      -2.22452815      -0.94831932
Si       2.09138858       1.91566956      -0.02341319      -1.66839292       1.74788120      -1.72257627
Si       2.09700877       0.07674478       1.89213865      -1.35111991      -1.15592022       1.42780800
Si       0.05425683       1.89274375       1.89251489       0.92820487       1.63256402       1.24309194
2
Lattice="3.5269455943391215 0.0 0.0 1.6988923229080488 3.103146763243751 0.0 1.4260354316549084 1.1528345405388687 2.937584829228305" Properties=species:S:1:pos:R:3:dft_force:R:3 dft_energy=-229.40739009814897 volume=32.15077847730558 dft_virial="-0.032532258420185714 0.31701847106210174 0.2790924980011928 0.31701847106210174 -0.03089013354826089 0.22482405428368413 0.2790924980011928 0.22482405428368413 -0.027031803244623898" id=303 pbc="T T T"
Si       0.00000000       0.00000000       0.00000000       8.25331697       2.44938640      -0.85885302
Si       1.81625924       1.04861750       0.74148460      -8.25331722      -2.44938640       0.85885293
2
Lattice="2.6955824556781254 -0.038891464499843084 -0.02165519136934367 -1.343958404366631 2.382642680399981 0.048171530801281316 -0.01732416309547095 -0.0803989779570623 4.808226473685822" Properties=species:S:1:pos:R:3:dft_force:R:3 dft_energy=-229.22479823139233 volume=30.637282186764 dft_virial="0.003593632285337098 -0.0005482430754366149 0.0002982951253377728 -0.0005482430754366152 0.003652038542082037 -0.00016571682408258385 0.0002982951253377728 -0.00016571682408258374 0.0017869234855239777" id=2364 pbc="T T T"
Si       0.04967126      -0.01382532       0.06476731      -0.33169194       0.09678357      -3.12712175
Si       0.15230093       1.52521903       2.30292153       0.33169247      -0.09678373       3.12713285
2
Lattice="3.759797501536211 0.0 0.0 2.0326601898851764 3.346140666398757 0.0 1.9597042189617107 1.095844563252171 3.2987136853007364" Properties=species:S:1:pos:R:3:dft_force:R:3 dft_energy=-230.15909263517023 volume=41.500494464612615 dft_virial="-0.005907251553139015 0.25027485853078596 0.24283012843595056 0.25027485853078596 -0.0009560075002960775 0.1338275519626923 0.24283012843595056 0.13382755196269233 0.007754431176647685" id=239 pbc="T T T"
Si       0.00000000       0.00000000       0.00000000       0.66947680      -2.20388811      -6.24898056
Si       1.91067024       1.10312485       0.78002703      -0.66947728       2.20388794       6.24898085
4
Lattice="3.9090754020416436 0.04646436148167205 0.0341471163906986 -0.14193789343078492 3.8754395154471943 0.008511396607790819 -0.06747962310605912 0.06715936323369841 4.031913413084668" Properties=species:S:1:pos:R:3:dft_force:R:3 dft_energy=-458.3328128531955 volume=61.11394362667572 dft_virial="0.0023072814536948304 -0.0004937394568379271 1.6780255895436474e-06 -0.0004937394568379272 0.002289175590474488 0.0003338431759222712 1.6780255895436535e-06 0.0003338431759222711 0.0011369792767330358" id=2285 pbc="T T T"
Si       0.04967102      -0.01382541       0.06476978       1.17265808      -0.91048649      -1.87505885
Si       2.09138954       1.91567193      -0.02341582      -1.27106452       0.96317763      -2.44449568
Si       2.09700881       0.07674367       1.89214001      -1.94042418      -0.91665795       2.26594128
Si       0.05425683       1.89274527       1.89251328       2.03883891       0.86396086       2.05360447
2
Lattice="3.7053875232212574 0.0 0.0 1.917769235674859 3.0148667984276485 0.0 1.8493642629375973 0.8607826569358746 2.942434827295343" Properties=species:S:1:pos:R:3:dft_force:R:3 dft_energy=-229.5086095700403 volume=32.87067453204198 dft_virial="-0.01947328345622713 0.35304348397332525 0.3492950666233127 0.3530434839733254 -0.039074172400840136 0.16825525624350846 0.34929506662331294 0.16825525624350848 -0.026286295209759072" id=318 pbc="T T T"
Si       0.00000000       0.00000000       0.00000000      -5.70575414       7.90902941      -1.79702957
Si       1.79778353       1.03795101       0.73394329       5.70575429      -7.90902946       1.79702995
4
Lattice="4.037885490704502 -0.04596118168221389 -0.04190114330033841 0.0956178718915863 3.9594109519804563 -0.009037096398273657 0.016648483364762476 -0.13790490503812866 3.962731570657027" Properties=species:S:1:pos:R:3:dft_force:R:3 dft_energy=-458.29888307474715 volume=63.370461888737935 dft_virial="0.004524860827045425 -0.0002343173866591535 -0.00031840942125456933 -0.00023431738665915362 0.00391097400389477 -0.0006591275435068376 -0.00031840942125456944 -0.0006591275435068376 0.004407685483707219" id=2280 pbc="T T T"
Si       0.04967069      -0.01382761       0.06476800       0.54964544      -2.71502724      -0.90857755
Si       2.09139087       1.91567291      -0.02341498      -0.33071558       1.07981634      -1.11476389
Si       2.09700681       0.07674201       1.89213721       0.02630882      -0.30150271       1.03318154
Si       0.05425496       1.89274441       1.89251134      -0.24523855       1.93670293       0.99016730
2
Lattice="2.6547707019436118 -0.08756006510301768 0.007505447008711093 -1.3191513042534775 2.4309225911580676 0.004825448076822168 0.001994509205090216 -0.07915732845192054 4.833737373518477" Properties=species:S:1:pos:R:3:dft_force:R:3 dft_energy=-229.2071768022692 volume=30.638167334439668 dft_virial="0.001946346038469549 0.00029937263985269097 0.0004888784622983567 0.00029937263985269134 0.004158906206930147 -0.0005965743370089828 0.0004888784622983566 -0.0005965743370089825 0.002727044254974763" id=2372 pbc="T T T"
Si       0.04967233      -0.01382659       0.06477104      -0.30099009       0.04476070      -3.11308304
Si       0.15230109       1.52521879       2.30292192       0.30099007      -0.04476069       3.11307514
2
Lattice="3.7196235175475154 0.0 0.0 2.100918162681025 3.2602577006273328 0.0 2.003108201663094 1.2878314867359617 3.0544227826626478" Properties=species:S:1:pos:R:3:dft_force:R:3 dft_energy=-230.0648734443109 volume=37.040774991517914 dft_virial="-0.010697347548045192 0.3093368403548345 0.31231007598925253 0.3093368403548344 -0.007964607536655172 0.20214476308806242 0.3123100759892523 0.2021447630880623 -0.008880719689859628" id=260 pbc="T T T"
Si       0.00000000       0.00000000       0.00000000      -3.26142505      -5.53867579      -4.08537360
Si       1.86282200       1.07549956       0.76049324       3.26142495       5.53867578       4.08537244
2
Lattice="3.7033415240366883 0.0 0.0 2.152429142151372 3.264416698969768 0.0 1.83597626827337 1.161673537016095 3.027422793423468" Properties=species:S:1:pos:R:3:dft_force:R:3 dft_energy=-230.034777532242 volume=36.59927074217089 dft_virial="-0.013077953320315543 0.3210714142670457 0.29067756649465853 0.32107141426704555 -0.008238367762093165 0.18394893865106685 0.29067756649465853 0.18394893865106698 -0.011327879705627453" id=285 pbc="T T T"
Si       0.00000000       0.00000000       0.00000000      -4.22014076      -7.34810506      -3.84184417
Si       1.83770379       1.06099730       0.75023775       4.22014016       7.34810478       3.84184424
2
Lattice="3.6942545276583023 0.0 0.0 1.7730982933333284 3.127986753343796 0.0 1.8539402611138374 1.1219025528667836 3.108642761053326" Properties=species:S:1:pos:R:3:dft_force:R:3 dft_energy=-229.98959555710053 volume=35.922167710669164 dft_virial="-0.014544760682562973 0.2797954119903656 0.29564895185305357 0.2797954119903656 -0.022653130418411833 0.18205237312139508 0.29564895185305345 0.182052373121395 -0.006202002362740441" id=278 pbc="T T T"
Si       0.00000000       0.00000000       0.00000000       0.76038501       4.51137525      -4.06220582
Si       1.84974936       1.06795369       0.75515772      -0.76038506      -4.51137557       4.06220612
2
Lattice="3.799631485660414 0.0 0.0 1.7658742962124456 3.205406722488139 0.0 1.6015623616988142 1.1503085415456034 3.123925754962303" Properties=species:S:1:pos:R:3:dft_force:R:3 dft_energy=-230.10975239007726 volume=38.047429838060445 dft_virial="-0.0043282468895110586 0.24849861915479743 0.22971299948305848 0.24849861915479732 -0.011836477358965442 0.17005904965359125 0.22971299948305837 0.17005904965359123 -0.0033744332538530987" id=247 pbc="T T T"
Si       0.00000000       0.00000000       0.00000000       3.07899342       4.52517317      -0.78549008
Si       1.89292050       1.09287781       0.77278113      -3.07899327      -4.52517290       0.78549009
2
Lattice="3.8343884718080496 0.0 0.0 2.201891122438346 3.2898396888374593 0.0 1.8473812637279199 1.2447975038871153 3.0173027974567836" Properties=species:S:1:pos:R:3:dft_force:R:3 dft_energy=-230.08787471087953 volume=38.061836673930486 dft_virial="-0.0027623438838132817 0.30777367867809025 0.27708456099647366 0.3077736786780901 -0.004453139255773666 0.18976907945506782 0.2770845609964735 0.18976907945506785 -0.011783067427521547" id=259 pbc="T T T"
Si       0.00000000       0.00000000       0.00000000      -6.07651445      -5.79759442      -0.12807971
Si       1.87711450       1.08375303       0.76632853       6.07651439       5.79759488       0.12808007
2
Lattice="3.6064395626568744 0.0 0.0 2.0363651884085527 3.124745754635493 0.0 2.0748491730707967 0.6859347266213542 2.8802048520970414" Properties=species:S:1:pos:R:3:dft_force:R:3 dft_energy=-229.44880680046003 volume=32.45762385338036 dft_virial="-0.02579735480354264 0.37307410054951257 0.41173031320539283 0.3730741005495126 -0.024658809155292366 0.13242395441446853 0.4117303132053929 0.1324239544144685 -0.031536569670340325" id=317 pbc="T T T"
Si       0.00000000       0.00000000       0.00000000      -0.26523478      -0.77602413       1.46413523
Si       1.80670456       1.04310157       0.73758590       0.26523404       0.77602381      -1.46413665
2
Lattice="2.675241983784802 -0.010239735918962798 0.09660986149622977 -1.3343374482010542 2.3415110067929716 -0.03875873455274248 0.04731340114328809 -0.03345462666668973 4.544780578681938" Properties=species:S:1:pos:R:3:dft_force:R:3 dft_energy=-229.26717530392833 volume=28.39706198527131 dft_virial="-0.0007497230552117668 -1.0591749336138794e-05 0.0013409698323429689 -1.0591749336138813e-05 -7.077583832805637e-05 -8.981357994568181e-05 0.0013409698323429689 -8.981357994568185e-05 -0.0025042643327592164" id=2360 pbc="T T T"
Si       0.04967108      -0.01382673       0.06477116      -0.11813341      -0.04683599      -1.43544007
Si       0.15230082       1.52521879       2.30292285       0.11813333       0.04683588       1.43544080
2
Lattice="3.7554995032491743 0.0 0.0 1.688265327143428 3.207618721606549 0.0 1.7775682915518147 1.3406924656682677 3.0798467725299408" Properties=species:S:1:pos:R:3:dft_force:R:3 dft_energy=-230.06753001886332 volume=37.10048257770582 dft_virial="-0.008687673587706474 0.24491636104009068 0.2711998027943929 0.24491636104009068 -0.011962315635745098 0.21024178120557496 0.2711998027943929 0.21024178120557496 -0.007037426976270345" id=261 pbc="T T T"
Si       0.00000000       0.00000000       0.00000000       1.05721619      -0.23869298      -2.31451832
Si       1.86282531       1.07550164       0.76049425      -1.05721605       0.23869287       2.31451856
4
Lattice="3.9747652458610174 -0.09906995051576359 -0.021024671620636728 -0.05876751657826106 3.9337005522273123 0.09770914105811293 0.09914491048588836 -0.05897048649736759 3.9207049074067144" Properties=species:S:1:pos:R:3:dft_force:R:3 dft_energy=-458.35742228853184 volume=61.30956654844274 dft_virial="0.0020771365497214505 -0.0004870401616513397 -0.00017633655388291626 -0.0004870401616513399 0.002001275520437966 -0.00030212384742621655 -0.0001763365538829163 -0.00030212384742621655 0.0028509633115820984" id=2286 pbc="T T T"
Si       0.04966987      -0.01382645       0.06476861       0.76313774      -1.89158094      -0.46841630
Si       2.09139005       1.91567266      -0.02341270      -0.43426827       1.69659212      -1.77371787
Si       2.09700724       0.07674279       1.89213836      -1.92581800      -1.03030865       1.40862550
Si       0.05425567       1.89274548       1.89251148       1.59695225       1.22529765       0.83351657
2
Lattice="2.682288900976259 0.029662778177927413 0.06839983273931044 -1.3370018571391564 2.264091367648496 0.011844305279463174 -0.053695818599581564 0.04429715234541123 4.766217040428642" Properties=species:S:1:pos:R:3:dft_force:R:3 dft_energy=-229.2386945024595 volume=29.13684681494554 dft_virial="0.00043213776485611586 0.0006766063916202823 0.0008543150955065514 0.0006766063916202823 -0.0017909903097137597 0.0005083905306932199 0.0008543150955065517 0.00050839053069322 -0.0007570703840100677" id=2363 pbc="T T T"
Si       0.04967047      -0.01382671       0.06476932      -0.28844667       0.23258374      -4.02176309
Si       0.15230236       1.52521845       2.30292128       0.28844698      -0.23258370       4.02175186
2
Lattice="3.6863965307900997 0.0 0.0 1.774478292783331 3.083386771119077 0.0 1.8555692604646012 0.8719046525032137 2.9624288193267563" Properties=species:S:1:pos:R:3:dft_force:R:3 dft_energy=-229.7318144747108 volume=33.67270282104216 dft_virial="-0.018640372394534154 0.3085190212903275 0.3379750144765663 0.3085190212903276 -0.0293799000153073 0.16045961588951782 0.3379750144765663 0.16045961588951774 -0.022929019042615698" id=298 pbc="T T T"
Si       0.00000000       0.00000000       0.00000000      -2.79904210       5.19108327      -0.31899710
Si       1.81625857       1.04861805       0.74148408       2.79904218      -5.19108327       0.31899723
2
Lattice="2.6581767305861423 -0.012087395182579919 0.04830790074693119 -1.318223284623339 2.2953012352098328 0.043744212565784875 -0.03183461731234295 -0.04547974187409128 4.632937603547037" Properties=species:S:1:pos:R:3:dft_force:R:3 dft_energy=-229.25093282882676 volume=28.204928419685316 dft_virial="-0.0024137854634711927 0.00035711668474857277 0.00018639963953853553 0.00035711668474857277 -0.002716148317527275 5.4249766763225905e-05 0.00018639963953853548 5.424976676322591e-05 -0.0023983998287479312" id=2340 pbc="T T T"
Si       0.04967013      -0.01382512       0.06476755      -0.32610397       0.15776167      -3.78655677
Si       0.15230222       1.52521896       2.30292184       0.32610419      -0.15776189       3.78655667
2
Lattice="3.757496502453272 0.0 0.0 1.5682623749704927 3.2545767028914896 0.0 1.9935182054851779 1.104951559622586 3.10077576418871" Properties=species:S:1:pos:R:3:dft_force:R:3 dft_energy=-230.12335720815676 volume=37.91957465930812 dft_virial="-0.007356338189306257 0.21636318006671898 0.29698207794743714 0.2163631800667189 -0.008202366081491209 0.16235775984873735 0.29698207794743703 0.16235775984873735 -0.0045358367827243" id=256 pbc="T T T"
Si       0.00000000       0.00000000       0.00000000       1.39211295      -0.51057795      -1.21552814
Si       1.87711156       1.08375158       0.76632882      -1.39211297       0.51057807       1.21552796
2
Lattice="4.071917377141126 0.0 0.0 1.8917492460451018 3.3282716735204274 0.0 1.8553792605403256 1.1885035263230277 3.0724187754903616" Properties=species:S:1:pos:R:3:dft_force:R:3 dft_energy=-230.13257716368093 volume=41.63879342546581 dft_virial="0.007750328549756155 0.2265579447430318 0.2416787798606669 0.2265579447430317 -0.0002053915118069003 0.15864455263344562 0.24167877986066688 0.15864455263344562 -0.006418733379559784" id=228 pbc="T T T"
Si       0.00000000       0.00000000       0.00000000      -4.28054536      -0.63854749       2.93962763
Si       1.93079599       1.11474493       0.78824440       4.28054154       0.63854859      -2.93962636
2
Lattice="2.6419704070451577 0.020203631947861324 -0.058128276833029464 -1.2942967641592316 2.3658479570935027 0.026988249243858425 0.03615958558863088 -0.06614368363849656 4.613025951482808" Properties=species:S:1:pos:R:3:dft_force:R:3 dft_energy=-229.26934187855588 volume=28.959080679895216 dft_virial="-0.0010144634603491054 -0.0008161951272814829 0.00044942022037330816 -0.0008161951272814827 0.0009205528201408588 0.00036623173982140543 0.0004494202203733082 0.0003662317398214055 0.0010797693937362482" id=2342 pbc="T T T"
Si       0.04967164      -0.01382482       0.06476851      -0.18020281       0.05448302      -1.41652777
Si       0.15230123       1.52521776       2.30292084       0.18020293      -0.05448325       1.41652886
2
Lattice="3.5648625792273427 0.0 0.0 1.9423882258629834 3.209884720703437 0.0 1.8185862752041357 0.9488866218221216 2.8893678484451377" Properties=species:S:1:pos:R:3:dft_force:R:3 dft_energy=-229.58809998083123 volume=33.06245241921634 dft_virial="-0.029802738977299265 0.3404068315124024 0.35099301254833576 0.34040683151240253 -0.017493654549276573 0.17771892800344374 0.35099301254833576 0.1777189280034437 -0.03463974061038563" id=309 pbc="T T T"
Si       0.00000000       0.00000000       0.00000000       2.24042056      -4.90511182       4.36343621
Si       1.80670557       1.04310290       0.73758338      -2.24042097       4.90511207      -4.36343629
4
Lattice="3.903135484408992 0.09133987359657854 -0.06061662584130029 -0.014848354082202324 3.98046117359091 -0.02131754150391371 0.02780917891667767 -0.06731150317306316 3.8097423016307577" Properties=species:S:1:pos:R:3:dft_force:R:3 dft_energy=-458.36682411849483 volume=59.19538167762505 dft_virial="0.00034891684805046487 2.5662687188073653e-05 -0.0005057590599816098 2.566268718807367e-05 -0.0006111805644167279 -0.0009278377429772297 -0.00050575905998161 -0.0009278377429772297 0.0010754816285421266" id=2281 pbc="T T T"
Si       0.04966985      -0.01382673       0.06476984       1.96487067      -2.38121212      -0.49497799
Si       2.09138824       1.91567090      -0.02341342      -1.76244798       1.99714905      -0.57290271
Si       2.09700822       0.07674150       1.89213831      -1.80262730      -1.82830516       0.41150002
Si       0.05425728       1.89274550       1.89251139       1.60019972       2.21236874       0.65637947
2
Lattice="3.59620256673682 0.0 0.0 1.7031233212217882 3.190009728624597 0.0 1.8257182723616847 1.3025754808597565 2.9396228284160624" Properties=species:S:1:pos:R:3:dft_force:R:3 dft_energy=-229.72839499847166 volume=33.723121368865904 dft_virial="-0.024714526618936503 0.2889003183667844 0.3366117370422843 0.2889003183667844 -0.01836420071567517 0.24046665776220072 0.3366117370422843 0.24046665776220072 -0.0253918057730403" id=295 pbc="T T T"
Si       0.00000000       0.00000000       0.00000000       4.30022681      -1.99448991       2.04659791
Si       1.82655893       1.05456350       0.74568824      -4.30022644       1.99448971      -2.04659749
2
Lattice="3.653271543992032 0.0 0.0 1.9228642336442525 3.151560743948404 0.0 1.6057973600109594 1.194050524112277 2.9632988189800185" Properties=species:S:1:pos:R:3:dft_force:R:3 dft_energy=-229.81148656577298 volume=34.11796224371459 dft_virial="-0.019289561400826695 0.3242460365896168 0.28489218071315736 0.3242460365896168 -0.021315183486234183 0.21521945255129518 0.28489218071315736 0.21521945255129518 -0.021770338681037255" id=290 pbc="T T T"
Si       0.00000000       0.00000000       0.00000000       0.72934331       0.39091955       0.47094560
Si       1.82656264       1.05456611       0.74569044      -0.72934164      -0.39091690      -0.47094275
2
Lattice="3.7252005153248073 0.0 0.0 1.6685163350143704 3.137352749610987 0.0 1.7472753036250568 1.06712057470009 3.026329793859082" Properties=species:S:1:pos:R:3:dft_force:R:3 dft_energy=-229.95912677401017 volume=35.36952759813151 dft_virial="-0.014301114626710618 0.26308639691980973 0.28864906749476243 0.26308639691980973 -0.020810602261503875 0.1793668743624128 0.28864906749476243 0.17936687436241283 -0.013306551654110026" id=300 pbc="T T T"
Si       0.00000000       0.00000000       0.00000000      -3.08875592       0.58372088      -3.34587269
Si       1.81626056       1.04861808       0.74148408       3.08875625      -0.58372088       3.34587260
4
Lattice="3.935166541643044 -0.10144241957021827 -0.0060805875765874914 -0.030663217779203143 3.9017703149530787 -0.1136959146865992 -0.07426576040145043 -0.09012535408062416 3.8741570059583377" Properties=species:S:1:pos:R:3:dft_force:R:3 dft_energy=-458.3777662351332 volume=59.42924678420016 dft_virial="-4.0555952388195143e-05 -0.0006267844212121609 0.00031122864082637974 -0.0006267844212121609 0.0002593531642558342 -0.0005409732935184868 0.0003112286408263797 -0.0005409732935184867 0.0009599031475047532" id=2313 pbc="T T T"
Si       0.04967227      -0.01382595       0.06477039       0.74301450      -2.39869333      -1.26403777
Si       2.09138939       1.91567250      -0.02341367      -1.37048107       1.30005302      -0.76959054
Si       2.09700792       0.07674369       1.89213761      -1.38644263      -0.92394542       0.69855906
Si       0.05425655       1.89274534       1.89251505       2.01390687       2.02258096       1.33507327
2
Lattice="3.6194585574681666 0.0 0.0 1.7813342900508795 3.234719710805475 0.0 2.04695518418792 0.94196662458008 2.9377068291796826" Properties=species:S:1:pos:R:3:dft_force:R:3 dft_energy=-229.80302953975803 volume=34.39447748608687 dft_virial="-0.022234456741587014 0.29004127945395974 0.37030709187692734 0.29004127945395974 -0.01299060141878342 0.1638447229669262 0.3703070918769272 0.16384472296692604 -0.025089216497382497" id=296 pbc="T T T"
Si       0.00000000       0.00000000       0.00000000       1.19260349      -3.64556858       2.10680489
Si       1.82655985       1.05456306       0.74568987      -1.19260336       3.64556843      -2.10680457
2
Lattice="3.6319285524982616 0.0 0.0 1.8501322626315118 3.249814704789379 0.0 2.18405212954806 1.2433815044514607 2.888529848779122" Properties=species:S:1:pos:R:3:dft_force:R:3 dft_energy=-229.68910045831942 volume=34.09359168587306 dft_virial="-0.020344496359469402 0.30494791785117464 0.4049209113914527 0.30494791785117453 -0.01123769208289294 0.2269069101680985 0.40492091139145264 0.2269069101680985 -0.029918029083648736" id=297 pbc="T T T"
Si       0.00000000       0.00000000       0.00000000      -0.33522787      -5.74696042       2.58103967
Si       1.82655867       1.05456258       0.74568842       0.33522765       5.74696017      -2.58103991
2
Lattice="2.666737747174157 0.10865056669741795 -0.02319002075763885 -1.2644592660509384 2.332955510202756 -0.10758515712203594 -0.1609499158535611 0.09068582385724944 4.751284096380154" Properties=species:S:1:pos:R:3:dft_force:R:3 dft_energy=-229.25400507058825 volume=30.234148600939506 dft_virial="0.0026025879780123455 0.0005755582154086573 -0.00033582134540619137 0.0005755582154086575 0.0022596617853125763 0.0004213296051901198 -0.0003358213454061913 0.0004213296051901196 0.004615621506855464" id=2351 pbc="T T T"
Si       0.04967152      -0.01382709       0.06476852      -0.23981640       0.23314874      -0.62661384
Si       0.15230257       1.52521902       2.30291946       0.23981638      -0.23314865       0.62661337
2
Lattice="3.8542664638856943 0.0 0.0 1.8567142600082627 3.324966674837632 0.0 1.8315632700321665 1.110080557578429 3.2430537074839685" Properties=species:S:1:pos:R:3:dft_force:R:3 dft_energy=-230.23694886696057 volume=41.56073065726984 dft_virial="-0.0004510069839513274 0.22509033060688557 0.22750517534880704 0.22509033060688557 -0.0015234997591260311 0.13871168241207268 0.22750517534880704 0.13871168241207268 0.005282954993365647" id=230 pbc="T T T"
Si       0.00000000       0.00000000       0.00000000       2.34078380       1.79307500      -1.93685042
Si       1.93079623       1.11474563       0.78824367      -2.34078388      -1.79307517       1.93685079
2
Lattice="3.8031304842658917 0.0 0.0 2.171037134735174 3.3284996734295587 0.0 1.9772632119635902 1.1727405326053542 3.289353689031154" Properties=species:S:1:pos:R:3:dft_force:R:3 dft_energy=-230.1368022125856 volume=41.63900264271838 dft_virial="-0.00303347919079646 0.2679013909405371 0.24341219486860236 0.26790139094053705 -0.0016532191391747495 0.14460007799203264 0.24341219486860238 0.14460007799203267 0.007667785882960262" id=233 pbc="T T T"
Si       0.00000000       0.00000000       0.00000000      -3.08757535      -4.06470175      -7.62634752
Si       1.91066876       1.10312540       0.78002747       3.08757775       4.06470299       7.62634568
4
Lattice="3.8422229086856423 0.031562557420772165 -0.007454947028837812 -0.0030471687855537217 3.9397663998097747 -0.12207211134827384 0.07392045053907335 -0.01790533286384628 3.7587241319640015" Properties=species:S:1:pos:R:3:dft_force:R:3 dft_energy=-458.339986829868 volume=56.891388167863916 dft_virial="-0.0019852768414817014 -0.0008454059222878654 0.0009944661398404403 -0.0008454059222878657 -0.004336655001348499 0.00033162166752761336 0.0009944661398404403 0.0003316216675276133 -0.0023624503763031495" id=2326 pbc="T T T"
Si       0.04967070      -0.01382465       0.06476931       3.08984402      -2.42429360      -0.65802816
Si       2.09139050       1.91566963      -0.02341468      -3.10243038       2.36459416       0.85469816
Si       2.09700611       0.07674435       1.89213821      -3.19285016      -2.34139530      -0.06285690
Si       0.05425510       1.89274490       1.89251371       3.20543717       2.40109479      -0.13381298
2
Lattice="3.81416947986631 0.0 0.0 1.7116563178209703 3.3752066548145345 0.0 1.8571282598432635 1.0892265658897675 3.0452667863117617" Properties=species:S:1:pos:R:3:dft_force:R:3 dft_energy=-230.1850506243283 volume=39.203577595589636 dft_virial="-0.0043912879143289925 0.21834980276460453 0.2665381665329913 0.21834980276460453 0.0010403033122074405 0.15471498757913918 0.26653816653299134 0.1547149875791392 -0.008948586615659537" id=252 pbc="T T T"
Si       0.00000000       0.00000000       0.00000000      -0.48052924      -4.39048838       1.31607973
Si       1.87711334       1.08375083       0.76632920       0.48052944       4.39049024      -1.31607928
2
Lattice="3.6368755505266406 0.0 0.0 1.3283264705967235 3.1134307591450736 0.0 1.582265369389612 0.9112976368031765 2.9069868414231053" Properties=species:S:1:pos:R:3:dft_force:R:3 dft_energy=-229.50356518833996 volume=32.91627772272679 dft_virial="-0.021704586683528995 0.2294358370471681 0.298614015915139 0.2294358370471681 -0.023893879033740194 0.17042364584886685 0.298614015915139 0.17042364584886685 -0.028077383847608033" id=311 pbc="T T T"
Si       0.00000000       0.00000000       0.00000000       0.68601001      -1.67096196       2.36477631
Si       1.80670687       1.04310172       0.73758396      -0.68600968       1.67096157      -2.36477640
2
Lattice="3.6548905433467813 0.0 0.0 1.8211822741695025 3.1068217617790834 0.0 1.8937422452507937 1.123120552381351 3.0114697997815187" Properties=species:S:1:pos:R:3:dft_force:R:3 dft_energy=-229.825162760333 volume=34.19552107965259 dft_virial="-0.021455649461356783 0.30880259587066544 0.3329329764657665 0.30880259587066544 -0.026280560172205803 0.20011922125045326 0.3329329764657665 0.20011922125045328 -0.016073440142560205" id=319 pbc="T T T"
Si       0.00000000       0.00000000       0.00000000      -4.34460884      -0.78723181      -5.94268284
Si       1.79778878       1.03795400       0.73394338       4.34460871       0.78723184       5.94268282
2
Lattice="3.70478952345959 0.0 0.0 1.8701682546461857 3.260707700447986 0.0 2.0107131986321294 1.046679582846828 3.0069578015797718" Properties=species:S:1:pos:R:3:dft_force:R:3 dft_energy=-230.07180476123037 volume=36.3247590662812 dft_virial="-0.013415880927801618 0.27984330720113276 0.32807052240524975 0.27984330720113276 -0.008680623366972375 0.16772419058497662 0.32807052240524975 0.16772419058497662 -0.014903514780367135" id=274 pbc="T T T"
Si       0.00000000       0.00000000       0.00000000      -1.79469809      -3.59568033      -0.50287511
Si       1.84975315       1.06795478       0.75515836       1.79469677       3.59568231       0.50287360
2
Lattice="3.5618485804285696 0.0 0.0 1.8345982688225706 3.184065730993572 0.0 1.7388663069764547 0.9801236093726493 3.0009888039587103" Properties=species:S:1:pos:R:3:dft_force:R:3 dft_energy=-229.7941994401652 volume=34.034694195700375 dft_virial="-0.028736311447096253 0.3103993394520522 0.3096873010291165 0.3103993394520522 -0.019689333444430027 0.1704948974516539 0.3096873010291165 0.17049489745165383 -0.018173639922520256" id=307 pbc="T T T"
Si       0.00000000       0.00000000       0.00000000       4.83239198      -1.47514182      -1.91699568
Si       1.81625837       1.04861637       0.74148431      -4.83239182       1.47514192       1.91699578
2
Lattice="3.93551243150519 0.0 0.0 1.967073216024804 3.256572702095986 0.0 1.7283743111580299 1.085622567326138 3.061915779676321" Properties=species:S:1:pos:R:3:dft_force:R:3 dft_energy=-230.15645478706102 volume=39.24237717404782 dft_virial="0.003068748919963833 0.26355734029628036 0.24340556307854547 0.2635573402962803 -0.00655912124987562 0.15697428917667625 0.24340556307854538 0.15697428917667627 -0.008631632578474872" id=224 pbc="T T T"
Si       0.00000000       0.00000000       0.00000000      -0.79755527       4.48613505       4.53004548
Si       1.93079671       1.11474581       0.78824429       0.79755526      -4.48613491      -4.53004468
2
Lattice="2.780653281773227 0.05340287871633248 -0.03637687550203019 -1.4152224159644256 2.207915560037312 -0.010893365658459274 0.020079991997137912 -0.11666491350330749 4.431524393820085" Properties=species:S:1:pos:R:3:dft_force:R:3 dft_energy=-229.24762351401685 volume=27.53409427491909 dft_virial="-0.003579453701939353 0.00030009328645627523 -0.00031009547876453207 0.0003000932864562752 -0.003413314881461395 -0.0011229842604602157 -0.00031009547876453207 -0.0011229842604602162 -0.00569890340197638" id=2359 pbc="T T T"
Si       0.04967255      -0.01382679       0.06477117      -0.24830419       0.11891020       2.14451189
Si       0.15230248       1.52521739       2.30291900       0.24830411      -0.11890999      -2.14451173
2
Lattice="2.700417943750946 -0.013445714641222966 0.036085925617987985 -1.3516351613070667 2.381939000680432 0.006502617408387894 0.06630411357455734 -0.15431923849621135 4.6633490814265715" Properties=species:S:1:pos:R:3:dft_force:R:3 dft_energy=-229.25002344830057 volume=29.915519170020143 dft_virial="0.002049028784701252 0.00031175846519181197 0.00031465588181001764 0.0003117584651918118 0.0035467629036833167 6.969942739963108e-05 0.00031465588181001753 6.969942739963104e-05 0.001566143212704646" id=2339 pbc="T T T"
Si       0.04967086      -0.01382652       0.06477068      -0.06871287      -0.11024988      -2.38405403
Si       0.15230230       1.52521935       2.30291978       0.06871254       0.11024996       2.38405413
2
Lattice="2.6211736953336673 0.020288091914199884 0.011735325322897035 -1.346797823234983 2.2516900925910135 0.015661083758289666 -0.022037981216783135 -0.04760552102686398 4.732695783788508" Properties=species:S:1:pos:R:3:dft_force:R:3 dft_energy=-229.2389555311822 volume=28.06530373812363 dft_virial="-0.0042665201066024745 -0.00046342272777654547 0.0005269372382788784 -0.0004634227277765455 -0.005003869323351218 0.00033763061913605347 0.0005269372382788782 0.0003376306191360533 -0.001276413026463748" id=2331 pbc="T T T"
Si       0.04966972      -0.01382517       0.06477071      -0.47014170       0.03485803      -3.61433074
Si       0.15230102       1.52521808       2.30292223       0.47014206      -0.03485853       3.61433813
2
Lattice="3.7813924929295477 0.0 0.0 1.9637922173324427 3.1690217369893414 0.0 1.9034202413936376 0.8801726492080112 3.099188764821207" Properties=species:S:1:pos:R:3:dft_force:R:3 dft_energy=-230.08511682556528 volume=37.13855523247279 dft_virial="-0.008321424295285188 0.291756516942389 0.2886506140389591 0.291756516942389 -0.015326495701080679 0.13338201748921674 0.2886506140389591 0.13338201748921677 -0.005242334200576906" id=277 pbc="T T T"
Si       0.00000000       0.00000000       0.00000000      -4.88400222       2.24760413      -4.99945839
Si       1.84975145       1.06795595       0.75515763       4.88400218      -2.24760425       4.99945852
2
Lattice="2.704818351997168 0.0571930072057803 0.020550301809696372 -1.3521877510868325 2.2619843584882426 -0.07695969932778358 -0.0734888707110791 -0.042812052937296216 4.6499481467675015" Properties=species:S:1:pos:R:3:dft_force:R:3 dft_energy=-229.27512426621809 volume=28.805201179040026 dft_virial="0.00015727372221449417 0.0013957821554900457 -1.7943054722637806e-05 0.001395782155490045 -0.0012472689458692817 -0.0005011784672249216 -1.7943054722637833e-05 -0.0005011784672249217 0.0007080058482365771" id=2375 pbc="T T T"
Si       0.04967187      -0.01382651       0.06477099      -0.46142295       0.13983299      -0.84944184
Si       0.15230064       1.52521881       2.30291874       0.46142283      -0.13983281       0.84944211
2
Lattice="3.6843705315975597 0.0 0.0 1.6469753435995125 3.169486736804016 0.0 1.7085113190744068 1.0069715986724082 3.1148467585807285" Properties=species:S:1:pos:R:3:dft_force:R:3 dft_energy=-230.0080565166767 volume=36.37382092003815 dft_virial="-0.01388748937362867 0.2503195292999453 0.2652060169666844 0.2503195292999454 -0.017301196419998128 0.15642532736039297 0.2652060169666844 0.15642532736039289 -0.004981606798418318" id=265 pbc="T T T"
Si       0.00000000       0.00000000       0.00000000       4.83846929       4.34976841      -2.32937095
Si       1.86282654       1.07550215       0.76049607      -4.83846950      -4.34976888       2.32937127
2
Lattice="3.724007515800277 0.0 0.0 1.96633321631973 3.190689728353584 0.0 2.0394631871738484 0.897354642360144 3.1035587630795485" Properties=species:S:1:pos:R:3:dft_force:R:3 dft_energy=-230.06831257091093 volume=36.876958605549724 dft_virial="-0.011132870112220273 0.2953277397618378 0.3160338257931692 0.2953277397618378 -0.014295084731103061 0.13640977299900398 0.3160338257931691 0.13640977299900392 -0.005377846960415861" id=263 pbc="T T T"
Si       0.00000000       0.00000000       0.00000000      -2.22877380       1.95682843      -4.39755326
Si       1.86282471       1.07550314       0.76049604       2.22877354      -1.95682803       4.39755363
4
Lattice="3.8434355182023574 -0.09768315106847122 0.08971460424432813 -0.05575142778032044 3.937680580641076 -0.020565521803630457 -0.021623141382117166 0.019983472035605854 3.717508148390593" Properties=species:S:1:pos:R:3:dft_force:R:3 dft_energy=-458.32029333955546 volume=56.25042082846885 dft_virial="-0.0048476461124759805 -0.0005323727361580055 0.0013914027681629967 -0.0005323727361580056 -0.005130108953035083 -0.0011939779855719452 0.0013914027681629967 -0.0011939779855719447 -0.003395794593960926" id=2306 pbc="T T T"
Si       0.04967010      -0.01382543       0.06477080       3.62955854      -2.12715258      -0.00144080
Si       2.09139064       1.91567021      -0.02341568      -3.82991754       2.07500045       0.64434957
Si       2.09700666       0.07674314       1.89213716      -4.76740563      -2.79484188       0.11943886
Si       0.05425695       1.89274571       1.89251494       4.96776076       2.84699156      -0.76234976
2
Lattice="3.548345585810175 0.0 0.0 1.7496043026968364 3.100511764293927 0.0 2.2448321053242575 1.0948845636347782 2.9197448363384177" Properties=species:S:1:pos:R:3:dft_force:R:3 dft_energy=-229.40257768436084 volume=32.12211948834997 dft_virial="-0.031263725363551584 0.32784493629735856 0.44922763638983665 0.32784493629735856 -0.030847536841387403 0.21449736063820385 0.44922763638983665 0.21449736063820396 -0.02781515058020288" id=324 pbc="T T T"
Si       0.00000000       0.00000000       0.00000000       2.13686874      -0.00633733      -1.94016271
Si       1.79778809       1.03795342       0.73394502      -2.13686856       0.00633725       1.94016256
2
Lattice="3.626831554529665 0.0 0.0 1.928627231347415 3.188711729141913 0.0 1.9469152240587528 1.3981724427596767 2.971857815568838" Properties=species:S:1:pos:R:3:dft_force:R:3 dft_energy=-229.79212525483464 volume=34.369298832144025 dft_virial="-0.021221895868551076 0.32062938074815317 0.34573462644105707 0.3206293807481532 -0.01678997134583946 0.2512666068417551 0.34573462644105707 0.251266606841755 -0.01931572660718879" id=291 pbc="T T T"
Si       0.00000000       0.00000000       0.00000000      -0.06164467      -3.61533054      -2.58169466
Si       1.82655838       1.05456435       0.74568964       0.06164442       3.61533043       2.58169488
4
Lattice="3.867195068733011 -0.05962183623777275 -0.04123170356714299 0.07805852888984609 3.86440577984468 0.0008917496445940105 0.009403086252408741 0.018084472792450228 3.989667459921754" Properties=species:S:1:pos:R:3:dft_force:R:3 dft_energy=-458.34891431897967 volume=59.643175240317944 dft_virial="-3.813823845680511e-05 -0.0005886981025145042 -8.908782834966356e-05 -0.0005886981025145044 0.00035850923691567666 -7.320620635080244e-05 -8.908782834966356e-05 -7.320620635080242e-05 0.00039144521768986297" id=2287 pbc="T T T"
Si       0.04967041      -0.01382695       0.06476897       2.26022065      -1.50820080      -1.64053508
Si       2.09138733       1.91567034      -0.02341236      -2.26498612       1.27987596      -2.23885425
Si       2.09700813       0.07674110       1.89213677      -2.37561298      -1.15526820       1.97899202
Si       0.05425539       1.89274609       1.89251326       2.38038020       1.38359194       1.90040284
2
Lattice="2.7059022815651685 -0.06335955474810853 -0.020926751659662634 -1.2772819409404732 2.3167077966782674 0.01411341437511186 -0.05510882803642797 -0.03478402613685882 4.585260342548766" Properties=species:S:1:pos:R:3:dft_force:R:3 dft_energy=-229.27135356176595 volume=28.37071100777345 dft_virial="-0.0009943712032282038 0.00041671202446249064 -0.00016719518514221043 0.0004167120244624908 -0.0015818812876251156 0.00013203342591697832 -0.00016719518514221043 0.00013203342591697824 -0.0008647579709775819" id=2370 pbc="T T T"
Si       0.04967068      -0.01382562       0.06476677      -0.27491616       0.04853752      -1.28726247
Si       0.15230218       1.52521924       2.30292075       0.27491592      -0.04853749       1.28726357
2
Lattice="3.7419845086355625 0.0 0.0 1.811934277855283 3.3347676709314538 0.0 1.8913122462192677 1.1438275441285988 3.0420827875807412" Properties=species:S:1:pos:R:3:dft_force:R:3 dft_energy=-230.1674990223075 volume=37.961083227241325 dft_virial="-0.008058756178778475 0.24989345539016383 0.28673300953361197 0.24989345539016372 -0.0026036960234844778 0.17167492583207797 0.28673300953361197 0.17167492583207808 -0.011300136831907646" id=234 pbc="T T T"
Si       0.00000000       0.00000000       0.00000000       4.64076215      -0.55073889       4.68443855
Si       1.91067100       1.10312610       0.78002653      -4.64076246       0.55073834      -4.68443856
4
Lattice="3.9512692152253384 -0.18206148743956393 -0.0434154526968118 -0.13589026584106126 3.754590013611651 -0.033393076691220415 0.15420989853978873 0.06887471255004754 3.9910813293582574" Properties=species:S:1:pos:R:3:dft_force:R:3 dft_energy=-458.34268712423636 volume=59.146099731973756 dft_virial="-0.0013913551903237443 -0.002950994025932475 -0.0005018318218987087 -0.002950994025932474 -0.00016130431047110095 -2.3163814773631676e-05 -0.0005018318218987087 -2.316381477363168e-05 6.510406816763415e-05" id=2319 pbc="T T T"
Si       0.04966939      -0.01382605       0.06476721       4.20317939       1.54908958      -1.96918782
Si       2.09138776       1.91567048      -0.02341572      -3.33200392      -0.91159321      -2.51302848
Si       2.09700804       0.07674220       1.89213705      -3.33438256       0.02803066       2.17848733
Si       0.05425469       1.89274402       1.89251436       2.46321047      -0.66552289       2.30371072
4
Lattice="3.831799462839897 0.055124378030230535 0.08491409615756615 0.05515014801995992 3.8230367163322807 -0.12397358059044505 0.11550835396425321 -0.14355682278556212 3.9241662860271855" Properties=species:S:1:pos:R:3:dft_force:R:3 dft_energy=-458.3461218071783 volume=57.36645918744638 dft_virial="-0.0018334860051973398 -0.0003077004693321653 0.0008297098242904651 -0.0003077004693321654 -0.001193055513021273 -0.0004838228012598675 0.0008297098242904652 -0.0004838228012598674 -0.005072770007604141" id=2288 pbc="T T T"
Si       0.04966930      -0.01382504       0.06476746       4.23294606      -1.44101874      -2.44114773
Si       2.09139056       1.91567046      -0.02341360      -2.84951748       0.27539570      -0.84495811
Si       2.09700802       0.07674326       1.89213922      -4.08278758      -0.33199203       2.04455458
Si       0.05425707       1.89274275       1.89251424       2.69936081       1.49761260       1.24155248
2
Lattice="2.6853593397525386 0.008842206475946853 0.024885140082050623 -1.338536336527591 2.3843025897384256 0.038834594522508564 -0.15582338789673406 0.0068778372588443725 4.594375928915757" Properties=species:S:1:pos:R:3:dft_force:R:3 dft_energy=-229.26642046404504 volume=29.47907613974117 dft_virial="0.0018241021772034392 -0.00018505333326860558 4.050333573344369e-05 -0.00018505333326860568 0.0016034259054079384 0.0005563433091433637 4.0503335733443753e-05 0.0005563433091433637 0.0009694457220800484" id=2366 pbc="T T T"
Si       0.04967135      -0.01382592       0.06477062      -0.36430589       0.22811879      -2.11190659
Si       0.15230147       1.52521872       2.30292166       0.36430575      -0.22811876       2.11190580
2
Lattice="3.6401045492397257 0.0 0.0 2.0720141742006826 3.101318763972298 0.0 2.0872411681319782 1.168942534119043 2.939917828298491" Properties=species:S:1:pos:R:3:dft_force:R:3 dft_energy=-229.60944255077774 volume=33.18909850507946 dft_virial="-0.021982052014691566 0.3709299808272894 0.39328645342758367 0.3709299808272896 -0.026211971502699292 0.22184012288733948 0.39328645342758384 0.22184012288733942 -0.024485720961700562" id=325 pbc="T T T"
Si       0.00000000       0.00000000       0.00000000      -5.20091280      -2.97873062      -4.34096748
Si       1.79778699       1.03795184       0.73394461       5.20091268       2.97873027       4.34096721
2
Lattice="2.8143656483371946 -0.015513533817095559 -0.11120021568125772 -1.4302221599862917 2.3209572949846344 0.06543750391994382 0.07056765187532814 0.017768472918391683 4.569408598866463" Properties=species:S:1:pos:R:3:dft_force:R:3 dft_energy=-229.25633553855283 volume=29.763789393518415 dft_virial="0.0018024750135686106 -0.0010414243050114445 -0.00038535662577399225 -0.0010414243050114436 0.0035338668961216162 1.6727992607311965e-05 -0.0003853566257739921 1.6727992607311928e-05 0.001807361612158833" id=2355 pbc="T T T"
Si       0.04967120      -0.01382687       0.06477015      -0.24475815       0.16897140      -1.19552989
Si       0.15230251       1.52521796       2.30292078       0.24475808      -0.16897132       1.19552978
2
Lattice="2.6480388446265875 -0.12321018089469729 -0.015620703774383075 -1.3179771547214338 2.396568624849809 0.06324429479404528 0.06702818328598005 -0.008996976414263438 4.681490354196384" Properties=species:S:1:pos:R:3:dft_force:R:3 dft_energy=-229.24839350543726 volume=28.952795662035275 dft_virial="-0.0009543655361010227 -0.0008504326218417014 6.117735080953504e-05 -0.0008504326218417011 -0.0009509645739927101 0.0004712840840487453 6.117735080953495e-05 0.0004712840840487453 0.0003045525181070781" id=2332 pbc="T T T"
Si       0.04967208      -0.01382657       0.06477112      -0.16734128       0.15208278      -3.36369461
Si       0.15230022       1.52521941       2.30291940       0.16734108      -0.15208288       3.36369339
2
Lattice="3.6858415310112944 0.0 0.0 1.7998272826805146 3.2940296871675394 0.0 1.9690592152332858 0.9645356155852296 2.983933810755962" Properties=species:S:1:pos:R:3:dft_force:R:3 dft_energy=-230.0237210094664 volume=36.228750311655936 dft_virial="-0.01383942505071115 0.26822439497001604 0.32603717615489813 0.2682243949700161 -0.006452255668324647 0.15458617761751542 0.32603717615489824 0.1545861776175154 -0.018774861853551185" id=257 pbc="T T T"
Si       0.00000000       0.00000000       0.00000000       3.38018870      -0.90886049       5.12161698
Si       1.87711079       1.08375131       0.76632791      -3.38018883       0.90886053      -5.12161678
4
Lattice="3.9269895049019943 0.08335632677841369 0.07144658152503154 0.10056676991920761 3.964085660117356 0.11799272297411027 -0.1284079388231357 -0.0037966484868492854 3.9463240571962266" Properties=species:S:1:pos:R:3:dft_force:R:3 dft_energy=-458.34498902673744 volume=61.43587704727458 dft_virial="0.0022662493114169176 0.00048230120169582766 0.0007179258441535525 0.00048230120169582766 0.0015447239569298722 6.0872557388783243e-05 0.0007179258441535525 6.0872557388783243e-05 0.002952910208709822" id=2312 pbc="T T T"
Si       0.04967042      -0.01382438       0.06476794       1.75088089      -1.79548680      -0.67741540
Si       2.09138738       1.91566973      -0.02341313      -2.03517640       1.92480574      -2.59481830
Si       2.09700720       0.07674321       1.89213942      -0.68322026      -1.22733155       2.02731078
Si       0.05425407       1.89274276       1.89251449       0.96751281       1.09800263       1.24491682
2
Lattice="2.6335406004048494 -0.08268389704640992 -0.05737514713318861 -1.2879904266726163 2.389587987631935 0.10119561966858014 0.10170943946379774 0.02648340944506186 4.606353594142069" Properties=species:S:1:pos:R:3:dft_force:R:3 dft_energy=-229.2546874264254 volume=28.505572060316464 dft_virial="-0.00304973408633802 0.0007188224379525622 0.00029389967065376817 0.0007188224379525623 -0.00017975354037772824 0.0007525230927434651 0.0002938996706537682 0.0007525230927434651 -0.0007451359419954333" id=2354 pbc="T T T"
Si       0.04967023      -0.01382532       0.06477090      -0.10527777       0.28022401      -2.96569081
Si       0.15230233       1.52521825       2.30292267       0.10527762      -0.28022423       2.96569107
2
Lattice="2.7246639640877177 0.0023534490620350707 0.017623202976288888 -1.3672855050696366 2.323824603841871 -0.022260251128197666 -0.06434318435608387 0.23517944626945095 4.6404980905338125" Properties=species:S:1:pos:R:3:dft_force:R:3 dft_energy=-229.27505676561046 volume=29.408136658482313 dft_virial="0.0023341907303676577 0.0002357839213631053 -0.0007783314870436871 0.00023578392136310524 0.0012954798058593378 0.00042309973083602144 -0.0007783314870436871 0.00042309973083602144 0.00048606552160834445" id=2348 pbc="T T T"
Si       0.04967048      -0.01382596       0.06477104      -0.20675938       0.50202577      -1.40092940
Si       0.15230156       1.52521763       2.30292163       0.20675924      -0.50202571       1.40092962
4
Lattice="3.923040486475872 0.007640626954835251 0.2375098553406686 0.0691164524537023 3.922393456733745 0.0025755389735213434 -0.09040682396844461 -0.042577353030835645 3.781060203061981" Properties=species:S:1:pos:R:3:dft_force:R:3 dft_energy=-458.38186764884637 volume=58.26380796540123 dft_virial="-0.0029991968565001464 -0.0006457659857772898 0.0012048642381619068 -0.00064576598577729 -0.0008615877092915345 -9.430673156018991e-05 0.0012048642381619068 -9.430673156018988e-05 0.00024773220585990607" id=2297 pbc="T T T"
Si       0.04967249      -0.01382455       0.06476729       3.14003939      -2.18398103      -0.87963316
Si       2.09139006       1.91567276      -0.02341214      -2.28387318       2.02800107      -0.81008597
Si       2.09700606       0.07674155       1.89213726      -3.03014087      -1.72159261       0.68741800
Si       0.05425452       1.89274491       1.89251384       2.17396413       1.87755726       1.00230149
4
Lattice="3.985901551422653 -0.031767427339121454 0.03345411666689299 -0.0808850977633197 3.901208255177087 -0.10481614822562185 0.04181385333512774 0.09504187212115046 3.8487404560880796" Properties=species:S:1:pos:R:3:dft_force:R:3 dft_energy=-458.3905054758925 volume=59.87151037054053 dft_virial="0.00023830286495405613 0.00034691853008926864 0.0006275730227979772 0.00034691853008926864 0.0013590404731562695 -0.00035163180080923705 0.000627573022797977 -0.00035163180080923694 0.0029037968499572692" id=2282 pbc="T T T"
Si       0.04967006      -0.01382419       0.06477024       0.79302446      -1.62285945      -0.63718994
Si       2.09138756       1.91567267      -0.02341552      -0.43372631       1.73572845      -1.16460511
Si       2.09700646       0.07674169       1.89214006      -1.39558606      -1.14494282       0.67116477
Si       0.05425565       1.89274358       1.89251209       1.03628899       1.03207177       1.13063223
4
Lattice="3.922697576612538 0.017421393056720042 0.10893056658582424 0.11010593611738183 3.8894185098758793 -0.018266682719830632 -0.07752710910164295 0.14574144191488422 3.907063792843368" Properties=species:S:1:pos:R:3:dft_force:R:3 dft_energy=-458.37563396730854 volume=59.647689001659856 dft_virial="0.0006084649266415484 4.7109546133308945e-05 0.001681796326328998 4.7109546133308945e-05 0.0001728144441355531 0.00014970246154303977 0.001681796326328998 0.00014970246154303972 0.0009419501343710562" id=2293 pbc="T T T"
Si       0.04967129      -0.01382526       0.06476736       1.51424774      -1.39628619      -0.89589993
Si       2.09138946       1.91567076      -0.02341409      -1.62008463       2.11529612      -1.96771979
Si       2.09700531       0.07674465       1.89213795      -0.98893287      -1.19102575       1.24506534
Si       0.05425444       1.89274596       1.89251236       1.09477163       0.47201192       1.61855150
2
Lattice="3.733441512040366 0.0 0.0 1.7015803218367491 3.113839758982067 0.0 1.6526793413261893 0.9273206304172273 3.0684447770741947" Properties=species:S:1:pos:R:3:dft_force:R:3 dft_energy=-229.92781795944927 volume=35.67170956419905 dft_virial="-0.013565800849736367 0.26732690059353903 0.2636925656102164 0.2673269005935389 -0.022916795556113104 0.15078833060323057 0.2636925656102163 0.15078833060323052 -0.008851080580281046" id=299 pbc="T T T"
Si       0.00000000       0.00000000       0.00000000      -3.10746753       3.46640425      -5.22644894
Si       1.81625752       1.04861749       0.74148354       3.10746767      -3.46640397       5.22644911
2
Lattice="3.6482515459927476 0.0 0.0 1.5994643625349694 3.23510171065323 0.0 1.7653842964077346 1.2295825099510371 2.9599958202964256" Properties=species:S:1:pos:R:3:dft_force:R:3 dft_energy=-229.88021902128997 volume=34.935246528505544 dft_virial="-0.01842195127026214 0.25140736258947516 0.306047314291715 0.2514073625894751 -0.01242128872477378 0.21292068353090512 0.30604731429171494 0.21292068353090512 -0.02097634642063219" id=283 pbc="T T T"
Si       0.00000000       0.00000000       0.00000000       3.90153427      -2.96118314       2.79575853
Si       1.83770464       1.06099860       0.75023758      -3.90153428       2.96118299      -2.79575902
2
Lattice="3.6044385634543707 0.0 0.0 1.9344012290461936 3.1049197625371234 0.0 2.1802501310633433 0.9679336142309605 3.080941772093529" Properties=species:S:1:pos:R:3:dft_force:R:3 dft_energy=-229.71677770553 volume=34.48033682319114 dft_virial="-0.022133336819828937 0.33072767272394027 0.3779709951500273 0.33072767272394016 -0.02755155581759228 0.1641953791807692 0.37797099515002713 0.16419537918076924 -0.00961000036326924" id=287 pbc="T T T"
Si       0.00000000       0.00000000       0.00000000       1.27138693       4.42407688      -6.12074467
Si       1.83770561       1.06099850       0.75024013      -1.27138695      -4.42407662       6.12074489
4
Lattice="3.7437747779220527 -0.0738608005628468 -0.018751842526470643 -0.05936841633877302 4.073244056612379 0.014993374024404761 -0.021337961495775343 0.041661833395715143 3.7918461187632646" Properties=species:S:1:pos:R:3:dft_force:R:3 dft_energy=-458.2456564874371 volume=57.8025051366231 dft_virial="-0.004336095856069676 -0.001202164394301647 0.00039434652103150414 -0.0012021643943016475 -0.0030571646864673407 -0.0010817520459169066 0.00039434652103150414 -0.0010817520459169062 -0.0016317176239041148" id=2327 pbc="T T T"
Si       0.04967229      -0.01382414       0.06476853       4.58721620      -3.19957394      -0.28773180
Si       2.09138988       1.91566963      -0.02341349      -4.55421155       3.06074139      -1.16835195
Si       2.09700864       0.07674278       1.89213713      -6.52185344      -4.91006168       0.94318088
Si       0.05425779       1.89274295       1.89251140       6.48885369       5.04889374       0.51289850
2
Lattice="3.5970975663801186 0.0 0.0 2.0104201987489043 3.1246987546542244 0.0 1.8720832538829646 1.0309745891060387 2.931807831530722" Properties=species:S:1:pos:R:3:dft_force:R:3 dft_energy=-229.63670146689927 volume=32.953069366606826 dft_virial="-0.026694558245945493 0.36252587501513367 0.35726957401281767 0.36252587501513367 -0.0262963490568278 0.19570634573737858 0.35726957401281767 0.19570634573737858 -0.02810710619014767" id=315 pbc="T T T"
Si       0.00000000       0.00000000       0.00000000      -0.30517027      -1.01900063       0.54065832
Si       1.80670817       1.04310328       0.73758422       0.30517020       1.01900062      -0.54065840
2
Lattice="2.6848675799485293 -0.010003236013219613 -0.008355566669896694 -1.3610203775665974 2.260777178969363 0.07693345933824151 -0.056694257404556574 0.22952278852390665 4.547251417697187" Properties=species:S:1:pos:R:3:dft_force:R:3 dft_energy=-229.24335584453758 volume=27.493568310593755 dft_virial="-0.005123464038409876 -0.000892814114722406 -0.000932258853134654 -0.000892814114722406 -0.004388682230379599 0.0012137037495858715 -0.0009322588531346541 0.001213703749585872 -0.004421698214074637" id=2329 pbc="T T T"
Si       0.04967130      -0.01382604       0.06476817      -0.10692837       0.44345075      -2.63038039
Si       0.15230287       1.52521803       2.30292092       0.10692843      -0.44345086       2.63037991
2
Lattice="3.6615685406852725 0.0 0.0 1.8424472656943602 3.160959740202443 0.0 1.922032233975845 0.9926116043955706 3.1804867324199777" Properties=species:S:1:pos:R:3:dft_force:R:3 dft_energy=-230.00150186805703 volume=36.811178438513295 dft_virial="-0.01531475979150177 0.281808644494633 0.29249181625932463 0.281808644494633 -0.019290197090422095 0.14968709750321477 0.29249181625932463 0.14968709750321477 -0.0007578258796594549" id=253 pbc="T T T"
Si       0.00000000       0.00000000       0.00000000       4.44312130       6.28450045      -4.11191944
Si       1.87711258       1.08375311       0.76632873      -4.44312151      -6.28450059       4.11191930
2
Lattice="3.527965593932602 0.0 0.0 1.7053303203421908 3.151954743791376 0.0 1.5757463719877527 1.283112488616714 3.0087038008839055" Properties=species:S:1:pos:R:3:dft_force:R:3 dft_energy=-229.61707199363826 volume=33.456749829609514 dft_virial="-0.03287737959395564 0.29580209112082123 0.28529326749575007 0.2958020911208211 -0.023266392761707638 0.2328459591856977 0.28529326749575 0.2328459591856977 -0.01660794155280122" id=321 pbc="T T T"
Si       0.00000000       0.00000000       0.00000000       6.64258624      -2.86590650      -5.91993057
Si       1.79778671       1.03795206       0.73394321      -6.64258604       2.86590631       5.91993066
2
Lattice="3.7568355027167133 0.0 0.0 2.1017711623410626 3.28726968986173 0.0 2.0486071835295174 1.0970055627894557 3.119594756688418" Properties=species:S:1:pos:R:3:dft_force:R:3 dft_energy=-230.18229999386708 volume=38.52615756489534 dft_virial="-0.006602042921160472 0.2920255571657534 0.2978906824380998 0.2920255571657533 -0.005767643019292429 0.15785847176778875 0.29789068243809974 0.15785847176778875 -0.0036477408536456173" id=232 pbc="T T T"
Si       0.00000000       0.00000000       0.00000000      -0.53480229      -0.81135048      -1.55277489
Si       1.91067065       1.10312554       0.78002659       0.53480251       0.81135068       1.55277477
4
Lattice="3.9679575085742345 0.0012330795085573115 0.07771234902781575 0.07110608166073745 3.878234024333446 0.021202871549615313 -0.0659263537251132 0.09338095278310832 3.939456439933309" Properties=species:S:1:pos:R:3:dft_force:R:3 dft_energy=-458.36832434166035 volume=60.63516839609032 dft_virial="0.0017722908955081767 0.00019585182805782232 0.0006612045947661394 0.00019585182805782238 0.0017504476815677558 0.00034539623784154766 0.0006612045947661393 0.00034539623784154755 0.0019844229037898203" id=2318 pbc="T T T"
Si       0.04966989      -0.01382446       0.06476993       0.76410256      -1.28810984      -0.84099082
Si       2.09138962       1.91567120      -0.02341397      -0.91172731       1.64966650      -2.23736374
Si       2.09700706       0.07674479       1.89213660      -0.53262840      -0.74687204       1.41876713
Si       0.05425715       1.89274248       1.89251341       0.68024911       0.38531312       1.65958605
4
Lattice="3.7461995869556475 -0.11884573263414407 0.11970824229039163 0.023357360690945673 4.0117019811399155 0.0178047329039403 -0.01565713375986394 -0.00844988663230556 3.991752459090779" Properties=species:S:1:pos:R:3:dft_force:R:3 dft_energy=-458.19124572299535 volume=60.00976891940867 dft_virial="-0.0020186879546179315 -0.0021360697520090605 0.0021199726647765085 -0.0021360697520090605 -0.0009240468104533873 -0.0015385047432228652 0.0021199726647765085 -0.0015385047432228652 -0.00022702597553112217" id=2317 pbc="T T T"
Si       0.04967080      -0.01382703       0.06476902       5.07970656      -2.87673419      -3.89788159
Si       2.09139016       1.91567088      -0.02341368      -3.41694369       2.00223225      -2.37930501
Si       2.09700607       0.07674213       1.89213886      -7.25545689      -3.92849866       4.18302914
Si       0.05425761       1.89274360       1.89251227       5.59271960       4.80298240       2.09416763
4
Lattice="3.815479989344008 -0.1282559788836992 0.04816365080442188 0.04781688094262669 3.91605118926145 0.030848997705160728 -0.11257763513228848 -0.03867993458414813 3.8498455956476274" Properties=species:S:1:pos:R:3:dft_force:R:3 dft_energy=-458.3198491638221 volume=57.5726633722122 dft_virial="-0.0031454494285985232 -0.0016830988419204817 0.000305692470222818 -0.0016830988419204817 -0.0035857713701341215 -0.00038997100980352905 0.0003056924702228179 -0.0003899710098035289 -0.0017834761455973586" id=2314 pbc="T T T"
Si       0.04967102      -0.01382528       0.06477005       3.35812841      -2.13049764      -1.12657870
Si       2.09138956       1.91567081      -0.02341355      -3.40652106       1.35930031      -1.45451024
Si       2.09700818       0.07674261       1.89213762      -4.37683560      -2.34345700       1.47632366
Si       0.05425739       1.89274474       1.89251319       4.42522190       3.11464759       1.10476733
2
Lattice="3.706656522715499 0.0 0.0 1.9362592283056899 3.159368740836534 0.0 1.8306912703797011 1.0948075636654662 2.990440808162604" Properties=species:S:1:pos:R:3:dft_force:R:3 dft_energy=-229.95934225995057 volume=35.02013947498268 dft_virial="-0.014204494304142003 0.3152526317368286 0.31330941659452044 0.3152526317368286 -0.01946504320095178 0.18969272277874993 0.31330941659452033 0.1896927227787498 -0.018871008264393033" id=273 pbc="T T T"
Si       0.00000000       0.00000000       0.00000000      -0.83351022       2.08023376       1.60701857
Si       1.84974890       1.06795340       0.75515808       0.83351064      -2.08023332      -1.60701826
4
Lattice="3.9230758864617634 -0.04589022171049493 0.036193135575259563 -0.15321632893577497 3.9345771018779643 0.026981199246668194 0.0024411890270663894 -0.04515243200454032 3.781801002766736" Properties=species:S:1:pos:R:3:dft_force:R:3 dft_energy=-458.39385328873766 volume=58.35262478590612 dft_virial="-0.0013001109067452153 -0.0004455306616526476 0.0004954831835062989 -0.00044553066165264746 -0.0014195511051849103 -0.0010694946421797575 0.0004954831835062987 -0.0010694946421797575 0.00041841234444749424" id=2321 pbc="T T T"
Si       0.04967194      -0.01382424       0.06476809       1.35448135      -2.05888822      -0.10010305
Si       2.09139011       1.91566941      -0.02341412      -1.79661977       1.74125956      -0.54633984
Si       2.09700765       0.07674229       1.89213975      -2.37911676      -1.77679585       0.35463294
Si       0.05425609       1.89274430       1.89251503       2.82124631       2.09441382       0.29181158
2
Lattice="2.686527759286866 0.13641635563138862 -0.031287597530357175 -1.2701641237772727 2.223981003634445 0.01509430398417922 -0.025670469769058204 -0.05442457830913505 4.671138668322039" Properties=species:S:1:pos:R:3:dft_force:R:3 dft_energy=-229.24396073210792 volume=28.716635864677485 dft_virial="-0.0004464444586953848 0.0017211408265899928 -0.00020684721843839237 0.001721140826589993 -0.002755810452778838 -0.0002855189076706869 -0.00020684721843839234 -0.00028551890767068683 0.0006238084470037386" id=2337 pbc="T T T"
Si       0.04967193      -0.01382610       0.06476917      -0.17816712      -0.11727694      -2.54397689
Si       0.15230063       1.52521941       2.30291944       0.17816708       0.11727682       2.54397844
2
Lattice="2.6313782312666594 -0.0009396796254915614 0.016235453529375134 -1.2884296864975497 2.339407637631267 -0.057321187154694295 -0.09195965334956589 -0.19593066191201736 4.79384952941574" Properties=species:S:1:pos:R:3:dft_force:R:3 dft_energy=-229.25648530503972 volume=29.482526321738845 dft_virial="-0.0008552736216853355 0.001116934732875866 0.0002763470308951003 0.001116934732875866 0.001541480322750782 -0.0005801696979966951 0.00027634703089510036 -0.0005801696979966951 0.0017703578033585255" id=2333 pbc="T T T"
Si       0.04966941      -0.01382537       0.06476851      -0.47446655      -0.00696598      -1.87785486
Si       0.15230296       1.52521735       2.30292262       0.47446644       0.00696589       1.87785665
4
Lattice="3.7954909173106337 -0.014522444212093397 -0.09262084308604934 0.023697020555574554 3.8365983009273243 0.04455931224092765 0.046222321578136834 -0.06197170530123463 3.974632165914056" Properties=species:S:1:pos:R:3:dft_force:R:3 dft_energy=-458.3158532159417 volume=57.90607526854354 dft_virial="-0.0011649438610458662 -0.0006992031211489214 -0.000431253764111941 -0.0006992031211489214 -0.002406291245585623 0.00032499154863708407 -0.000431253764111941 0.00032499154863708407 -0.0026842927527193803" id=2283 pbc="T T T"
Si       0.04967176      -0.01382525       0.06476836       3.73390499      -1.40527694      -1.94920592
Si       2.09139070       1.91567068      -0.02341394      -3.97740507       0.71646523      -2.69982125
Si       2.09700688       0.07674370       1.89213943      -3.87770763      -1.04802205       2.20443018
Si       0.05425471       1.89274356       1.89251156       4.12120633       1.73683205       2.44459740
2
Lattice="2.6228157646792227 -0.041659153396783256 -0.010747585716559734 -1.3516423213042128 2.3506148131646576 0.01789555286774409 0.07925392841342073 -0.0790841784810744 4.651007496345298" Properties=species:S:1:pos:R:3:dft_force:R:3 dft_energy=-229.25966066150653 volume=28.4171450729355 dft_virial="-0.002706593605539962 -0.0006085202222605779 0.00015558978761756126 -0.0006085202222605778 -0.001933748278209733 -9.313345921783774e-05 0.00015558978761756126 -9.313345921783778e-05 -0.0003536694440379397" id=2328 pbc="T T T"
Si       0.04967139      -0.01382562       0.06476799      -0.24570868      -0.00384367      -2.36729835
Si       0.15230207       1.52521841       2.30292138       0.24570888       0.00384363       2.36729423
2
Lattice="3.5914145686450722 0.0 0.0 1.948973223238539 3.1265727539073445 0.0 1.8467962639610709 0.9994566016675033 2.8910038477931117" Properties=species:S:1:pos:R:3:dft_force:R:3 dft_energy=-229.53806001865752 volume=32.462558756830944 dft_virial="-0.02796858612863142 0.3582025225295089 0.3650177114846451 0.35820252252950907 -0.026863334095547607 0.19621213649897862 0.3650177114846452 0.19621213649897853 -0.0357165423660065" id=314 pbc="T T T"
Si       0.00000000       0.00000000       0.00000000       0.66195356      -0.33871759       4.26516944
Si       1.80670413       1.04310130       0.73758471      -0.66195374       0.33871735      -4.26516995
2
Lattice="2.6183625364540526 -0.03139440748778816 -0.054822798150424915 -1.31035270776015 2.376035083033433 -0.020647771770849813 0.1186027627309795 0.04425298236301514 4.575507846435614" Properties=species:S:1:pos:R:3:dft_force:R:3 dft_energy=-229.27196538868944 volume=28.298575753859364 dft_virial="-0.0023370713792349716 0.0005538428345740979 -7.58261445244757e-05 0.0005538428345740977 -0.00032524079189456877 -0.00042560866174578855 -7.582614452447563e-05 -0.00042560866174578855 -0.001033594389854853" id=2373 pbc="T T T"
Si       0.04967023      -0.01382522       0.06476762      -0.12027257       0.23824606      -0.57708948
Si       0.15230016       1.52521945       2.30292168       0.12027252      -0.23824602       0.57708947
2
Lattice="2.712648378876518 -0.022297761113248098 -0.019492322231353148 -1.3449132339860845 2.3476850343323186 -0.05955900626281358 -0.08331570679460273 0.0894186743622707 4.664371461019104" Properties=species:S:1:pos:R:3:dft_force:R:3 dft_energy=-229.27332077221826 volume=29.577778246326137 dft_virial="0.0022556193023144143 0.0002958546109836418 -0.00015286319695109388 0.0002958546109836418 0.001775309854382542 0.0009340648112226439 -0.00015286319695109393 0.0009340648112226443 0.0021135642272635275" id=2341 pbc="T T T"
Si       0.04967157      -0.01382580       0.06476822      -0.38891581       0.29363207      -0.78371673
Si       0.15230080       1.52521957       2.30292274       0.38891568      -0.29363185       0.78371650
2
Lattice="3.8226784764750574 0.0 0.0 1.8813472501908075 3.2113917201028244 0.0 2.2661750968180283 1.128243550339585 3.0310767919671706" Properties=species:S:1:pos:R:3:dft_force:R:3 dft_energy=-230.0475543302041 volume=37.20985638939989 dft_virial="-0.0030595880127581103 0.27544046181306897 0.3563069575421923 0.275440461813069 -0.011672715946491797 0.17720641578072618 0.35630695754219244 0.1772064157807262 -0.011322918019078228" id=243 pbc="T T T"
Si       0.00000000       0.00000000       0.00000000      -4.01524960       1.36867928      -0.28339670
Si       1.89292140       1.09287986       0.77278212       4.01524980      -1.36867946       0.28339671
2
Lattice="2.703437602547464 0.11827069286332563 0.01190466525540676 -1.2922226449858696 2.2068235604725275 0.06943782232562065 -0.05794974690418239 0.026569839410615272 4.696856458072238" Properties=species:S:1:pos:R:3:dft_force:R:3 dft_energy=-229.21576267667646 volume=28.734971988751987 dft_virial="-0.0007872697450051065 0.00043569177854838314 0.00035911345318017827 0.00043569177854838325 -0.0038785141271450883 0.00029554575826018313 0.00035911345318017827 0.00029554575826018313 -0.0005741026864029969" id=2349 pbc="T T T"
Si       0.04967014      -0.01382622       0.06476684      -0.10113944       0.16577191      -4.13750667
Si       0.15230039       1.52521889       2.30292054       0.10113968      -0.16577177       4.13751432
2
Lattice="3.5580605819382725 0.0 0.0 1.859439258922217 3.0902397683878213 0.0 1.9583392195057299 1.2010945213048985 3.022074795554908" Properties=species:S:1:pos:R:3:dft_force:R:3 dft_energy=-229.6206377464885 volume=33.2284990493025 dft_virial="-0.029534322595855728 0.33657484554031264 0.361839098269388 0.33657484554031264 -0.031819712480863564 0.22286357490339212 0.361839098269388 0.22286357490339206 -0.017153963330453582" id=305 pbc="T T T"
Si       0.00000000       0.00000000       0.00000000       3.45734223       2.66595821      -4.37315517
Si       1.81626087       1.04861845       0.74148418      -3.45734233      -2.66595836       4.37315488
2
Lattice="2.5873456288158123 0.022242931135100535 0.013610284575633772 -1.286379687314575 2.355729141126347 0.011290555500159631 -0.1329155270266406 0.026484729444535775 4.637741741632354" Properties=species:S:1:pos:R:3:dft_force:R:3 dft_energy=-229.2562775693413 volume=28.40312225005953 dft_virial="-0.004834075877022247 -0.00048497588381580565 -9.863171058481873e-05 -0.0004849758838158054 0.0007060597279637746 0.0011147631733743342 -9.863171058481871e-05 0.0011147631733743344 -0.0008634997236873168" id=2353 pbc="T T T"
Si       0.04967034      -0.01382669       0.06476771      -0.38022122       0.19127566      -2.54546313
Si       0.15230152       1.52521881       2.30292033       0.38022118      -0.19127546       2.54546317
4
Lattice="3.826109635107572 -0.05608170764868771 0.002816468877498955 0.07731905918456106 3.808625782075745 -0.0617563953870462 0.008079416779955976 -0.09344604275716678 3.8877926405238683" Properties=species:S:1:pos:R:3:dft_force:R:3 dft_energy=-458.3372835351921 volume=56.64846799249142 dft_virial="-0.002645381561712258 -0.000954697756094937 2.753353473878437e-06 -0.0009546977560949373 -0.0035303246031816683 0.00043824620360353436 2.7533534738784344e-06 0.00043824620360353414 -0.00468413476268536" id=2323 pbc="T T T"
Si       0.04966981      -0.01382484       0.06476895       3.07399144      -1.34297342      -1.94968995
Si       2.09138761       1.91567202      -0.02341353      -2.83342839       0.57659296      -1.17179676
Si       2.09700799       0.07674263       1.89213855      -3.40826654      -1.04387350       1.75022933
Si       0.05425405       1.89274343       1.89251305       3.16770388       1.81025235       1.37125994
4
Lattice="3.9256823954229416 0.08109370768017841 -0.10862019670952187 0.01675210332346484 3.8033830841652176 -0.009427276242767842 -0.08362011667328047 -0.006443787431834527 3.9740183761586816" Properties=species:S:1:pos:R:3:dft_force:R:3 dft_energy=-458.38094086777505 volume=59.2954607309755 dft_virial="0.0007764834736174359 0.0007807648919076726 0.0001124536299349491 0.0007807648919076726 0.0017780174228430165 -0.0005062546019355592 0.00011245362993494908 -0.0005062546019355592 -0.0005209484416137931" id=2295 pbc="T T T"
Si       0.04967115      -0.01382723       0.06476949       1.49522825      -0.86829360      -1.86527380
Si       2.09139027       1.91567273      -0.02341336      -2.27835860       0.60480736      -2.28665752
Si       2.09700796       0.07674338       1.89213939      -1.01144301      -0.14966080       2.07826580
Si       0.05425405       1.89274450       1.89251378       1.79458062       0.41315020       2.07366482
2
Lattice="2.671537365261274 0.011931005244908985 -0.013319954691344477 -1.3232989926004202 2.3578572202782033 -0.013748004520745616 0.04815482080794106 0.06641768352929416 4.48655577188738" Properties=species:S:1:pos:R:3:dft_force:R:3 dft_energy=-229.27043974064915 volume=28.33722952535063 dft_virial="-0.000979333777384778 0.00041748277375602334 0.00019697826221801488 0.00041748277375602334 0.000704813425495238 4.4528383414783e-07 0.00019697826221801488 4.4528383414783945e-07 -0.002962879171130553" id=2345 pbc="T T T"
Si       0.04967203      -0.01382593       0.06476953      -0.10438244       0.24230340       0.33315824
Si       0.15230360       1.52521774       2.30292285       0.10438255      -0.24230362      -0.33315837
2
Lattice="3.6499395453199974 0.0 0.0 1.394613444178112 3.1060147621007124 0.0 1.7168173157640596 0.994873603494053 2.887686849115098" Properties=species:S:1:pos:R:3:dft_force:R:3 dft_energy=-229.50525965653028 volume=32.73703040312205 dft_virial="-0.021292626098883896 0.2452675036398667 0.3313815539727812 0.2452675036398667 -0.026062448671423384 0.1916726577626567 0.3313815539727811 0.19167265776265668 -0.03346516409509433" id=313 pbc="T T T"
Si       0.00000000       0.00000000       0.00000000      -0.67200749      -0.51983837       4.87921823
Si       1.80670596       1.04310135       0.73758453       0.67200747       0.51983791      -4.87921823
4
Lattice="3.845895507221931 0.0030564787818432313 -0.03297874685635119 0.022876320882663642 3.8692720979052124 0.08690082536575706 0.0953725319893663 0.1544113884594851 3.82016339747744" Properties=species:S:1:pos:R:3:dft_force:R:3 dft_energy=-458.3535084065901 volume=56.80735484691924 dft_virial="-0.001793695956781954 0.0001688101504350673 0.0009249214477673239 0.00016881015043506735 -0.003984683069746247 0.00015817304413146848 0.0009249214477673234 0.0001581730441314684 -0.003824533259405861" id=2307 pbc="T T T"
Si       0.04967034      -0.01382610       0.06477038       2.66941344      -1.23699319      -0.56991353
Si       2.09139012       1.91567194      -0.02341570      -2.45400393       1.49143479      -1.33861932
Si       2.09700898       0.07674346       1.89213710      -2.95516798      -1.17182047       1.17020971
Si       0.05425669       1.89274610       1.89251196       2.73975935       0.91738024       0.73832465
2
Lattice="3.700894525011938 0.0 0.0 1.9140882371419177 3.300209684704507 0.0 1.9708112145350278 1.286473487277191 3.1084087611465865" Properties=species:S:1:pos:R:3:dft_force:R:3 dft_energy=-230.14482662250066 volume=37.96525897696478 dft_virial="-0.011755266469536858 0.2683824666099705 0.29289799250756393 0.2683824666099704 -0.005023908490310055 0.1913019476141456 0.2928979925075639 0.1913019476141456 -0.004345161638373367" id=258 pbc="T T T"
Si       0.00000000       0.00000000       0.00000000       1.26976064      -4.24120874      -3.71629841
Si       1.87711377       1.08375196       0.76632844      -1.26976037       4.24120890       3.71629871
4
Lattice="3.7823570525451236 -0.010066835987871904 0.08871799464152595 -0.08236224717460316 3.7927126284179185 -0.028037638825625186 0.048439160694617664 -0.0307158377582315 3.77146921688446" Properties=species:S:1:pos:R:3:dft_force:R:3 dft_energy=-458.1796819440015 volume=54.08076427730002 dft_virial="-0.009619157738501687 -0.0010658332683772928 0.0018273800185435454 -0.0010658332683772928 -0.008077175688924774 -0.000865636318267524 0.0018273800185435454 -0.000865636318267524 -0.007923034108132283" id=2308 pbc="T T T"
Si       0.04967146      -0.01382638       0.06477082       5.70972938      -0.02661274      -1.08687717
Si       2.09138752       1.91567196      -0.02341357      -5.94819081       0.08950229       0.64932021
Si       2.09700542       0.07674359       1.89213840      -5.87652463      -1.22310556       1.26163190
Si       0.05425582       1.89274348       1.89251287       6.11498640       1.16021756      -0.82407460
2
Lattice="2.612849798651149 0.0751821600362202 -0.09332456280558249 -1.3825991289664064 2.2981726840654195 0.04873393057713741 0.06236110514603969 -0.19366389281543608 4.63602818231529" Properties=species:S:1:pos:R:3:dft_force:R:3 dft_energy=-229.26865083179854 volume=28.333504699864584 dft_virial="-0.0041414327691477555 -0.00033940054856363333 0.0007159974615325336 -0.00033940054856363295 0.00013896566196504222 -0.001059976358880198 0.0007159974615325336 -0.0010599763588801984 -0.0009876955556855896" id=2350 pbc="T T T"
Si       0.04967202      -0.01382673       0.06476970      -0.56724316       0.04064023      -1.74018863
Si       0.15230383       1.52521741       2.30292312       0.56724334      -0.04064041       1.74018502
4
Lattice="3.9055368534519284 0.019672282159630284 -0.026093839600324555 -0.018746412528634765 3.743510698027302 0.1113828256084787 -0.07689477935365738 -0.06626048359194603 3.9192722279777077" Properties=species:S:1:pos:R:3:dft_force:R:3 dft_energy=-458.3830908815714 volume=57.323959261059585 dft_virial="-0.0024822988318574024 -0.0005407284418024346 0.0007004261260009699 -0.0005407284418024346 -0.0013139986237458337 0.0010265787903744382 0.0007004261260009699 0.0010265787903744382 -0.0027781464837452518" id=2325 pbc="T T T"
Si       0.04966913      -0.01382595       0.06476890       2.06909967       0.19189118      -2.16644472
Si       2.09138936       1.91567179      -0.02341375      -2.46465798      -0.09673340      -2.21325684
Si       2.09700730       0.07674223       1.89213827      -1.64875420       0.34914696       1.88567587
Si       0.05425549       1.89274501       1.89251263       2.04431278      -0.44430697       2.49403207
2
Lattice="4.053007384677686 0.0 0.0 1.9357082285252902 3.23054671246862 0.0 1.8572432597974304 0.9630276161862414 3.0322317915068466" Properties=species:S:1:pos:R:3:dft_force:R:3 dft_energy=-230.04577157626122 volume=39.702313742170254 dft_virial="0.006782074030990063 0.25621116550613354 0.26162379946583625 0.2562111655061336 -0.0077105378770170345 0.139056414062067 0.2616237994658363 0.13905641406206698 -0.011235183652453235" id=226 pbc="T T T"
Si       0.00000000       0.00000000       0.00000000      -4.30614922       5.88983489       5.59535661
Si       1.93079482       1.11474446       0.78824382       4.30614649      -5.88983384      -5.59535515
2
Lattice="3.619002557649905 0.0 0.0 1.7354693083303252 3.1393247488250484 0.0 2.3982040441980144 0.9024016403486675 2.8371888692410216" Properties=species:S:1:pos:R:3:dft_force:R:3 dft_energy=-229.3149011946682 volume=32.23393911155169 dft_virial="-0.023928085968844232 0.3144971723789534 0.48682497069887415 0.3144971723789534 -0.02355359931969079 0.17696841996364937 0.48682497069887415 0.1769684199636493 -0.03307939058706611" id=323 pbc="T T T"
Si       0.00000000       0.00000000       0.00000000      -0.06471137      -1.91896806       1.69085617
Si       1.79778740       1.03795119       0.73394388       0.06471161       1.91896815      -1.69085602
2
Lattice="3.848914466018728 0.0 0.0 1.9048922408069733 3.358777661362295 0.0 1.951185222356949 1.0451155834701584 3.0769727736753696" Properties=species:S:1:pos:R:3:dft_force:R:3 dft_energy=-230.23075837429562 volume=39.77802070506421 dft_virial="-0.0027291972092900775 0.24220067657301234 0.27217655123735457 0.24220067657301234 0.0006715885444916634 0.14412644857315057 0.27217655123735457 0.14412644857315057 -0.005734750683302181" id=251 pbc="T T T"
Si       0.00000000       0.00000000       0.00000000      -5.00924283      -5.25170750      -2.07982430
Si       1.87711075       1.08374957       0.76632622       5.00924409       5.25170786       2.07982507
4
Lattice="3.921804956968291 -0.19047953408455928 -0.15368347874959284 -0.085414315958204 3.7462037769539775 -0.011602955375652953 -0.07431159038318494 -0.0458966817079203 3.915866529335046" Properties=species:S:1:pos:R:3:dft_force:R:3 dft_energy=-458.3520795971405 volume=57.42209477235459 dft_virial="-0.0047215123204453115 -0.0026514579870976023 -0.000620901214731456 -0.002651457987097603 -0.0014228694075326361 0.0009951697909890654 -0.0006209012147314563 0.0009951697909890659 -0.0016267666240181763" id=2298 pbc="T T T"
Si       0.04967227      -0.01382738       0.06476856       3.66875599       0.82975396      -1.97758504
Si       2.09138832       1.91567039      -0.02341526      -4.79403367      -1.30325176      -1.55009464
Si       2.09700735       0.07674356       1.89213777      -2.77533721       0.18469768       1.69313369
Si       0.05425697       1.89274325       1.89251167       3.90061611       0.28880202       1.83454115
4
Lattice="3.9135334802648805 -0.12464573032256039 -0.023414520668164615 0.19879518077036604 3.922735446597445 -0.13056026796532694 -0.08178691740390032 -0.09507660210730888 3.835544371347367" Properties=species:S:1:pos:R:3:dft_force:R:3 dft_energy=-458.377737525382 volume=58.92040403980955 dft_virial="0.00010822804796504228 -0.00030747232624819864 -0.000430830037728909 -0.0003074723262481987 -0.0009302430833913613 7.995322864166745e-05 -0.00043083003772890913 7.995322864166743e-05 0.00032286269842100515" id=2290 pbc="T T T"
Si       0.04967189      -0.01382711       0.06476828       1.48239578      -2.59941390      -1.00026993
Si       2.09138947       1.91567150      -0.02341258      -1.70553542       1.80422427      -0.16698271
Si       2.09700898       0.07674167       1.89213675      -1.30414041      -1.48571059       0.50442276
Si       0.05425516       1.89274405       1.89251171       1.52726588       2.28088791       0.66283819
2
Lattice="3.795930487135444 0.0 0.0 1.7563303000161965 3.3720276560815217 0.0 1.85075826238202 0.9033626399656621 3.0860157700712922" Properties=species:S:1:pos:R:3:dft_force:R:3 dft_energy=-230.19478974012313 volume=39.500948108342826 dft_virial="-0.004947921203268982 0.22327186020855425 0.25949474366683584 0.22327186020855425 0.001213030543335457 0.12257507424552064 0.25949474366683584 0.12257507424552061 -0.005428182457155335" id=242 pbc="T T T"
Si       0.00000000       0.00000000       0.00000000       1.47307226      -1.16432312       1.04722501
Si       1.89292022       1.09287971       0.77278155      -1.47307236       1.16432275      -1.04722515
2
Lattice="2.775920053659651 -0.010082605981586787 0.025695269759174195 -1.4386400266313588 2.2821346504573627 -0.07513194005623534 -0.09245927315044289 -0.10763656710154652 4.734895972911625" Properties=species:S:1:pos:R:3:dft_force:R:3 dft_energy=-229.26188109156595 volume=29.913877689066553 dft_virial="0.002415435172955736 -0.0010706589657674547 0.000726996599555185 -0.001070658965767455 0.0008160909886891233 -0.0006253841403427271 0.000726996599555185 -0.0006253841403427269 0.003554440285224733" id=2376 pbc="T T T"
Si       0.04967155      -0.01382514       0.06477062      -0.69330585       0.13934841      -1.51971164
Si       0.15229992       1.52521945       2.30292245       0.69330600      -0.13934852       1.51971134
2
Lattice="2.6419727870442085 -0.05109281963700437 -0.09111743368523176 -1.2948410439423093 2.396376284926466 0.13440468643313752 0.04418946238833096 0.0754256799391656 4.593866179118917" Properties=species:S:1:pos:R:3:dft_force:R:3 dft_energy=-229.25193461972694 volume=28.77205044453998 dft_virial="-0.00218273923852861 0.0011374269954263318 -0.0005208864673196266 0.0011374269954263314 0.0019895375725733993 0.000778395806771498 -0.0005208864673196265 0.000778395806771498 -0.0018115917487362037" id=2352 pbc="T T T"
Si       0.04967059      -0.01382490       0.06476794      -0.08236402       0.35445050      -3.11616416
Si       0.15230350       1.52521721       2.30291927       0.08236407      -0.35445067       3.11616536
2
Lattice="3.5543185834296427 0.0 0.0 1.8652132566209956 3.098798764976642 0.0 1.8126792775583642 1.2915824852410045 2.867000857359481" Properties=species:S:1:pos:R:3:dft_force:R:3 dft_energy=-229.31901570905248 volume=31.57748585417795 dft_virial="-0.03271487839199833 0.35917930275875004 0.37604529149035115 0.3591793027587501 -0.032219388021377485 0.26964496760079576 0.37604529149035115 0.26964496760079576 -0.04013991548812972" id=327 pbc="T T T"
Si       0.00000000       0.00000000       0.00000000       2.36922812       0.93342046       4.25443454
Si       1.79778497       1.03795136       0.73394362      -2.36922839      -0.93342044      -4.25443473
2
Lattice="2.6596512999984543 0.03060432780267369 0.013710814535567651 -1.3836472685486711 2.2975775843025965 -0.0021932691258746352 -0.040386793903880946 0.0068518172692146155 4.712194511959271" Properties=species:S:1:pos:R:3:dft_force:R:3 dft_energy=-229.26307811753122 volume=28.9957927833461 dft_virial="-0.0004891577405127457 -0.0005398164184931368 0.0003905469047321365 -0.0005398164184931369 -0.00018447338490386046 8.338129468600853e-05 0.0003905469047321365 8.338129468600855e-05 0.0003156477664014573" id=2362 pbc="T T T"
Si       0.04967253      -0.01382690       0.06477089      -0.49934207       0.16322844      -2.45846292
Si       0.15230235       1.52521899       2.30291941       0.49934232      -0.16322843       2.45846490
2
Lattice="3.705648523117236 0.0 0.0 1.8078392794873406 3.1774087336467116 0.0 2.0728931738503578 1.0955525633685472 2.8933108468736592" Properties=species:S:1:pos:R:3:dft_force:R:3 dft_energy=-229.75077527389993 volume=34.06688344853669 dft_virial="-0.015029645690566213 0.30232506651954927 0.3835257895173105 0.3023250665195491 -0.017836346078523798 0.2023405728958148 0.38352578951731026 0.20234057289581478 -0.032296404841309787" id=281 pbc="T T T"
Si       0.00000000       0.00000000       0.00000000      -2.03333343      -0.39094954       6.27019238
Si       1.83770308       1.06099880       0.75023839       2.03333386       0.39094992      -6.27019213
4
Lattice="4.003560444384718 0.04175574335828742 -0.00021367991483806916 -0.028952548460988804 3.9869662609983143 0.03581396572637736 -0.03735192511342507 -0.0013241394722654479 3.911529331063632" Properties=species:S:1:pos:R:3:dft_force:R:3 dft_energy=-458.3228275046733 volume=62.44089845785398 dft_virial="0.004366846308456548 0.00017896911583931225 -1.9077328154329438e-05 0.00017896911583931211 0.003642607612657562 0.00020296741645242986 -1.9077328154329435e-05 0.00020296741645242994 0.0028294608633189127" id=2291 pbc="T T T"
Si       0.04967295      -0.01382767       0.06476870       0.14604166      -1.74265309      -0.55367498
Si       2.09138905       1.91567083      -0.02341386      -0.48425206       1.31588371      -1.71840629
Si       2.09700691       0.07674241       1.89213650      -0.22331836      -0.94252695       1.22865980
Si       0.05425590       1.89274241       1.89251477       0.56152868       1.36928815       1.04342371
2
Lattice="3.7178445182565336 0.0 0.0 1.9593802190908405 3.1223177556031696 0.0 1.7845402887731316 1.1838405281814612 3.0058688020137914" Properties=species:S:1:pos:R:3:dft_force:R:3 dft_energy=-229.9070660135578 volume=34.89300262295699 dft_virial="-0.013287375201796195 0.3240599217733243 0.30463831637899447 0.3240599217733242 -0.023661271913615358 0.2077334275602587 0.30463831637899436 0.2077334275602587 -0.017254618801153313" id=272 pbc="T T T"
Si       0.00000000       0.00000000       0.00000000      -1.04000065       4.08512635       0.48790028
Si       1.84975218       1.06795507       0.75515841       1.03999993      -4.08512693      -0.48790059
2
Lattice="3.5335825916939525 0.0 0.0 1.815035276619383 3.0779897732700454 0.0 1.6038483607877314 1.040518585302288 2.9839528107483893" Properties=species:S:1:pos:R:3:dft_force:R:3 dft_energy=-229.49058170141387 volume=32.45445869750939 dft_virial="-0.03266966710164839 0.34001552031831495 0.30624251104715516 0.34001552031831495 -0.03538820623367847 0.19884438257700962 0.30624251104715516 0.19884438257700965 -0.022770578651578385" id=302 pbc="T T T"
Si       0.00000000       0.00000000       0.00000000       7.25260826       5.36184908      -1.57454007
Si       1.81625922       1.04861792       0.74148541      -7.25260792      -5.36184866       1.57454056
2
Lattice="2.6631003186238513 -0.027863268895120162 0.02992204807459564 -1.264686425960404 2.363109668184845 -0.03457346622077727 0.048001380869094404 0.03535253591027977 4.649733386853094" Properties=species:S:1:pos:R:3:dft_force:R:3 dft_energy=-229.26617643585567 volume=29.096413969875332 dft_virial="0.0001236479783885398 0.000410105155765274 -0.00017656751150757838 0.00041010515576527385 0.0008612695965866498 -0.0002798633775133136 -0.00017656751150757838 -0.00027986337751331373 0.0011120917186430868" id=2369 pbc="T T T"
Si       0.04967085      -0.01382626       0.06476682      -0.02895655       0.13118670      -1.71091331
Si       0.15230271       1.52521886       2.30291988       0.02895655      -0.13118657       1.71091446
4
Lattice="3.7737258159850944 0.005512717802911459 0.02898135844950661 0.07595086972985168 3.927091144861486 -0.06440223433254956 -0.03153375743225038 0.03276344694215877 3.940440819540985" Properties=species:S:1:pos:R:3:dft_force:R:3 dft_energy=-458.300113886806 volume=58.40639297883996 dft_virial="-0.001725987274645445 -0.00014484226240810914 0.000642881809303238 -0.00014484226240810906 -0.0016258574017287842 0.00034075436038599315 0.0006428818093032377 0.00034075436038599315 -0.0015797422425137015" id=2310 pbc="T T T"
Si       0.04966980      -0.01382498       0.06477065       4.08965601      -2.42885605      -2.64609363
Si       2.09138869       1.91567284      -0.02341284      -3.62072737       2.15428956      -2.18258338
Si       2.09700811       0.07674346       1.89213847      -4.10264856      -1.97878013       2.66588801
Si       0.05425509       1.89274391       1.89251276       3.63371876       2.25334038       2.16279725
2
Lattice="3.732015512608697 0.0 0.0 2.348127064156148 3.1853697304738637 0.0 1.8822162498444686 1.2541865001451395 2.9236818347693307" Properties=species:S:1:pos:R:3:dft_force:R:3 dft_energy=-229.73515110542218 volume=34.75628889945821 dft_virial="-0.010527468706058012 0.38424791643909356 0.3314507352875386 0.38424791643909345 -0.014646238525180294 0.22295671714524548 0.33145073528753854 0.2229567171452455 -0.023972584637968107" id=286 pbc="T T T"
Si       0.00000000       0.00000000       0.00000000      -5.82864818      -5.77918529       2.12037669
Si       1.83770334       1.06099934       0.75024015       5.82864839       5.77918551      -2.12037688
2
Lattice="3.6502805451840916 0.0 0.0 1.5529573810702837 3.2123147197349637 0.0 1.9239282332201966 1.2467415031123366 3.065779778136328" Properties=species:S:1:pos:R:3:dft_force:R:3 dft_energy=-229.9641206929172 volume=35.948873585993304 dft_virial="-0.016206089907237348 0.2371461515183186 0.3121867091131291 0.2371461515183186 -0.01386374783259176 0.20146107835430302 0.3121867091131291 0.20146107835430302 -0.008900515548093778" id=264 pbc="T T T"
Si       0.00000000       0.00000000       0.00000000       5.67117961      -0.66289078      -1.00834330
Si       1.86282286       1.07550209       0.76049427      -5.67117950       0.66289105       1.00834316
2
Lattice="3.832875472411054 0.0 0.0 1.9184442354058386 3.4097506410470615 0.0 2.1555371409126822 1.2544985000207927 3.0910087680813376" Properties=species:S:1:pos:R:3:dft_force:R:3 dft_energy=-230.1816172096749 volume=40.396856002206924 dft_virial="-0.0016955211598552917 0.23730530713168724 0.2964912102046104 0.23730530713168724 0.0034580277399050576 0.17110682211985143 0.29649121020461044 0.17110682211985148 -0.00437543276985847" id=237 pbc="T T T"
Si       0.00000000       0.00000000       0.00000000      -3.29504296      -6.28422286      -1.95965739
Si       1.91067273       1.10312535       0.78002843       3.29504263       6.28422284       1.95965784
4
Lattice="3.890223059555227 0.05869450660735912 0.07772742902180563 0.06449979429366712 3.873196306341223 0.031604327404124784 -0.04176891335303853 0.023313110708581462 3.8446238277287583" Properties=species:S:1:pos:R:3:dft_force:R:3 dft_energy=-458.3717995399701 volume=57.924437568924 dft_virial="-0.0020415578021897533 8.166634682781919e-05 0.0012375416571972155 8.166634682781919e-05 -0.0015977621852732164 0.0003190225059490667 0.0012375416571972155 0.0003190225059490667 -0.000736915567475762" id=2315 pbc="T T T"
Si       0.04967228      -0.01382662       0.06476752       2.44489589      -1.57859515      -0.84280820
Si       2.09139066       1.91567132      -0.02341373      -2.07209787       1.65490723      -1.47484690
Si       2.09700716       0.07674147       1.89213851      -2.25050505      -1.02665162       1.24965613
Si       0.05425615       1.89274300       1.89251502       1.87770847       0.95033418       1.06800071
2
Lattice="3.771630496820182 0.0 0.0 1.5778473711504013 3.263724699245564 0.0 2.0016052022621134 0.930383629196472 3.027200793511946" Properties=species:S:1:pos:R:3:dft_force:R:3 dft_energy=-230.0644888635729 volume=37.26352072464741 dft_virial="-0.00746437683156729 0.2211093209808938 0.31232637403333846 0.2211093209808938 -0.007277604367910022 0.1406568043648581 0.31232637403333846 0.14065680436485814 -0.011375853636317651" id=268 pbc="T T T"
Si       0.00000000       0.00000000       0.00000000      -0.75951879      -0.94902676       1.06206656
Si       1.86282383       1.07550106       0.76049339       0.75951895       0.94902669      -1.06206643
2
Lattice="2.706155811464124 0.0414587134766684 -0.03577270574282148 -1.3515279813497831 2.308022870139637 -0.022265451126125213 -0.043199692782802716 -0.05679627736389661 4.645446908561466" Properties=species:S:1:pos:R:3:dft_force:R:3 dft_energy=-229.27443152386024 volume=29.26545665744122 dft_virial="0.0017689308478271114 0.001019787976750116 4.2641754916253425e-05 0.0010197879767501155 0.000902386931576987 0.00012039315518675087 4.2641754916253404e-05 0.00012039315518675087 0.001051548699432263" id=2334 pbc="T T T"
Si       0.04967034      -0.01382687       0.06476741      -0.46913235       0.14882361      -0.99914309
Si       0.15230253       1.52521817       2.30291965       0.46913212      -0.14882365       0.99914429
2
Lattice="3.5842405715042625 0.0 0.0 1.8250552726259228 3.0365797897739557 0.0 1.810865278281332 1.0970295627798905 2.8440398665105624" Properties=species:S:1:pos:R:3:dft_force:R:3 dft_energy=-229.15497263946546 volume=30.95405347672129 dft_virial="-0.031228586712387617 0.3674880282070038 0.38891684066433546 0.36748802820700377 -0.042122796378091805 0.2396739493889363 0.38891684066433546 0.2396739493889363 -0.04842883353044158" id=320 pbc="T T T"
Si       0.00000000       0.00000000       0.00000000       0.68357180       6.02188073       7.95260692
Si       1.79778460       1.03795203       0.73394431      -0.68357195      -6.02188080      -7.95260688
2
Lattice="3.7493595056962645 0.0 0.0 1.9613072183228368 3.144992746566073 0.0 1.8372122677807636 1.0066245988107048 3.0375747893773997" Properties=species:S:1:pos:R:3:dft_force:R:3 dft_energy=-230.01911509601186 volume=35.818196310446496 dft_virial="-0.010946365146242523 0.3098493297449381 0.29883262139309624 0.3098493297449381 -0.019709793372124668 0.16619200207423324 0.29883262139309624 0.16619200207423324 -0.012500079794531854" id=276 pbc="T T T"
Si       0.00000000       0.00000000       0.00000000      -2.99062601       3.26390388      -1.37058003
Si       1.84974989       1.06795316       0.75515628       2.99062629      -3.26390384       1.37058009
2
Lattice="3.7937274880134466 0.0 0.0 1.5717313735879264 3.194476726844279 0.0 1.9658862164978812 1.0027196003670382 3.088416769114376" Properties=species:S:1:pos:R:3:dft_force:R:3 dft_energy=-230.0786244691555 volume=37.428443046299854 dft_virial="-0.005553422969204043 0.22419877800087024 0.2984171023101127 0.22419877800087024 -0.013184844022413737 0.15099474393976 0.2984171023101126 0.15099474393975998 -0.005984049524969349" id=255 pbc="T T T"
Si       0.00000000       0.00000000       0.00000000      -0.29323240       3.09230833      -0.60320936
Si       1.87711425       1.08375159       0.76632885       0.29323242      -3.09230865       0.60320932
2
Lattice="3.792925488333083 0.0 0.0 1.827084271817267 3.356903662109175 0.0 1.6787803309236644 1.0501335814702402 3.2685296973305364" Properties=species:S:1:pos:R:3:dft_force:R:3 dft_energy=-230.15409952160545 volume=41.61650685302513 dft_virial="-0.003096209817567166 0.21957831055422225 0.20497842206975422 0.21957831055422225 0.00017165147671368403 0.1277087321058376 0.20497842206975422 0.1277087321058376 0.006302415985055346" id=227 pbc="T T T"
Si       0.00000000       0.00000000       0.00000000       6.68602125       2.14575102      -1.72653024
Si       1.93079475       1.11474458       0.78824516      -6.68602010      -2.14575003       1.72653120
2
Lattice="2.6413124473073863 -0.026267769531004945 0.06315538482948026 -1.3384917165453742 2.27254271428022 -0.07158331147053795 -0.009910936050005677 0.01949753222927671 4.6902232707158875" Properties=species:S:1:pos:R:3:dft_force:R:3 dft_energy=-229.25303914639616 volume=27.991581056205295 dft_virial="-0.0033055831955832457 -0.0011367406425979688 0.0007755902081876101 -0.0011367406425979696 -0.004778840470957198 -0.0005251928742264425 0.0007755902081876104 -0.0005251928742264425 -0.0010898587883988405" id=2371 pbc="T T T"
Si       0.04967108      -0.01382579       0.06477048      -0.36061040       0.00711433      -1.77563740
Si       0.15230052       1.52521933       2.30292200       0.36061062      -0.00711456       1.77563824
4
Lattice="3.7837460519915385 -0.12286365103280644 0.06503353408094563 0.08074691781839119 3.8514146950222643 -0.0998822501920223 -0.0632099248077434 0.07228500119088017 3.9087017421905648" Properties=species:S:1:pos:R:3:dft_force:R:3 dft_energy=-458.28563689218515 volume=57.042164036948826 dft_virial="-0.0035482852793953614 -0.0022736554296643083 0.0012958698711547961 -0.002273655429664309 -0.004140854392731892 0.00013059463466763636 0.0012958698711547961 0.00013059463466763633 -0.0035200303367746936" id=2311 pbc="T T T"
Si       0.04967096      -0.01382528       0.06476996       4.22313962      -1.14584172      -2.51646281
Si       2.09139025       1.91567078      -0.02341576      -3.74623075       0.85111193      -1.57391524
Si       2.09700843       0.07674453       1.89213640      -5.19349926      -2.47512950       2.29765468
Si       0.05425554       1.89274476       1.89251510       4.71658735       2.76985592       1.79272740
2
Lattice="2.6239177142400414 -0.039310674332767394 0.032671636978749544 -1.270101623802182 2.334612499542365 0.01285278487753457 0.031876537295635776 0.06048047589556272 4.619965968716871" Properties=species:S:1:pos:R:3:dft_force:R:3 dft_energy=-229.25751777225858 volume=28.063466067028674 dft_virial="-0.003824892891844598 6.988904773725917e-05 9.85091778585912e-05 6.988904773725915e-05 -0.0017474792878823305 0.00031808804661055326 9.850917785859118e-05 0.0003180880466105532 -0.0018059366498388459" id=2356 pbc="T T T"
Si       0.04967125      -0.01382593       0.06476889      -0.18413608       0.20533753      -2.37426360
Si       0.15230265       1.52521889       2.30292179       0.18413608      -0.20533769       2.37426272
2
Lattice="2.7013732933701924 -0.04172869336906817 0.05891286652033198 -1.4063860394861554 2.3625999283880015 -0.040364983912573295 -0.030540647828053286 -0.09219175325706269 4.733284883553723" Properties=species:S:1:pos:R:3:dft_force:R:3 dft_energy=-229.2523450379431 volume=29.933079968030047 dft_virial="0.002713244864091669 -0.0006679363218860308 0.00120126331414062 -0.0006679363218860306 0.0011939387495201609 0.00021076210857851166 0.00120126331414062 0.0002107621085785117 0.002354195252698016" id=2361 pbc="T T T"
Si       0.04967032      -0.01382500       0.06477065      -0.47890175       0.06593603      -2.41966220
Si       0.15230012       1.52521931       2.30291971       0.47890169      -0.06593634       2.41966306
2
Lattice="3.946743427029087 0.0 0.0 1.9208362344525096 3.2371517098362044 0.0 1.904346241024581 1.2559434994448893 3.291208688291846" Properties=species:S:1:pos:R:3:dft_force:R:3 dft_energy=-230.12209416052866 volume=42.049164248969554 dft_virial="0.0029792232193231365 0.23488793687603762 0.22955556244681255 0.23488793687603768 -0.007013799959311759 0.15699120688937845 0.22955556244681255 0.15699120688937843 0.007276253413721414" id=235 pbc="T T T"
Si       0.00000000       0.00000000       0.00000000      -4.31488556       1.18719927      -6.38753648
Si       1.91066960       1.10312723       0.78002633       4.31488551      -1.18719885       6.38753725
2
Lattice="2.5617575090139333 -0.08882890459732289 0.010987055621119226 -1.3012548213861042 2.3530630521889147 -0.05367428860816232 -0.0313105575212065 -0.06553904387947516 4.625515686505036" Properties=species:S:1:pos:R:3:dft_force:R:3 dft_energy=-229.23686778003125 volume=27.340428541615076 dft_virial="-0.006761340083454618 6.170359906505364e-05 0.0005570949474830416 6.170359906505361e-05 -0.005592233428432017 -0.000868279878643242 0.0005570949474830413 -0.0008682798786432417 -0.003039779785264556" id=2347 pbc="T T T"
Si       0.04967006      -0.01382615       0.06477023      -0.49846975       0.04355019      -1.51130383
Si       0.15230190       1.52521842       2.30292114       0.49846976      -0.04354995       1.51130353
2
Lattice="3.8320584727366684 0.0 0.0 2.0410021865604815 3.1911097281861927 0.0 1.9211002343472927 1.1515135410653516 3.122559755506721" Properties=species:S:1:pos:R:3:dft_force:R:3 dft_energy=-230.15526146093183 volume=38.18428152157619 dft_virial="-0.003254610046877678 0.2921473149201192 0.27937753830400947 0.29214731492011936 -0.013189467899600236 0.17152439091885652 0.27937753830400963 0.17152439091885646 -0.0036286862774629813" id=249 pbc="T T T"
Si       0.00000000       0.00000000       0.00000000      -3.43932417       2.65617360      -2.49418247
Si       1.89292218       1.09288080       0.77278358       3.43932472      -2.65617382       2.49418195
2
Lattice="2.7152757478293825 -0.01568831374743718 -0.05888491653147141 -1.280321589729024 2.3097915194347434 -0.024851460095473753 0.11026389605442703 0.10199923934829826 4.617786879585345" Properties=species:S:1:pos:R:3:dft_force:R:3 dft_energy=-229.27083700944135 volume=28.898330035198025 dft_virial="0.00037326583452272004 0.0005165955726827981 0.00010535771874201607 0.0005165955726827984 0.0001912410957791191 -7.636270153537108e-05 0.00010535771874201613 -7.636270153537104e-05 0.0009067497035689361" id=2338 pbc="T T T"
Si       0.04967142      -0.01382500       0.06477032      -0.03636880       0.12041108      -0.72841382
Si       0.15230103       1.52521773       2.30292106       0.03636877      -0.12041128       0.72841633
2
Lattice="3.6279405540876746 0.0 0.0 2.1976651241226137 3.177575733580154 0.0 1.508975398599262 1.264349496094687 2.9814528117447616" Properties=species:S:1:pos:R:3:dft_force:R:3 dft_energy=-229.7385603236413 volume=34.37035458022882 dft_virial="-0.01826432444729935 0.36746592922547583 0.26248346338222045 0.36746592922547583 -0.018806097144694577 0.2211771731223007 0.2624834633822204 0.22117717312230065 -0.017119874033453837" id=269 pbc="T T T"
Si       0.00000000       0.00000000       0.00000000       3.82440255      -0.19527460      -0.14139468
Si       1.84975006       1.06795293       0.75515728      -3.82440308       0.19527454       0.14139519
2
Lattice="3.6065635626074544 0.0 0.0 1.7792852908675063 3.1407297482650876 0.0 1.7681422953085366 1.1769815309151082 2.923771834733462" Properties=species:S:1:pos:R:3:dft_force:R:3 dft_energy=-229.67498052017478 volume=33.11826957547443 dft_virial="-0.025320957475218727 0.3142929620774463 0.3353496791265446 0.3142929620774463 -0.024416885322087193 0.22434570221090944 0.3353496791265446 0.2243457022109095 -0.02959624607974676" id=304 pbc="T T T"
Si       0.00000000       0.00000000       0.00000000       2.04171816       0.21210142       2.89605204
Si       1.81625977       1.04861833       0.74148608      -2.04171825      -0.21210171      -2.89605199
2
Lattice="3.6599225413412837 0.0 0.0 1.6973673235158357 3.052120783580107 0.0 1.4059054396776978 0.954713619499777 2.9157208379421786" Properties=species:S:1:pos:R:3:dft_force:R:3 dft_energy=-229.44393914397028 volume=32.570134422237906 dft_virial="-0.019692325850801436 0.311232663900584 0.2670766467115108 0.3112326639005842 -0.03459330974881583 0.18672732518009438 0.26707664671151093 0.1867273251800944 -0.028676228242081173" id=288 pbc="T T T"
Si       0.00000000       0.00000000       0.00000000       0.37974028       7.90383983       1.59770582
Si       1.82655904       1.05456521       0.74568977      -0.37973993      -7.90383977      -1.59770578
2
Lattice="2.812573589051418 0.08879883460930726 -0.023121780784835823 -1.4397530561877616 2.1815228605560977 -0.023174100763983747 -0.12070272189404273 -0.16245667525304355 4.609738392793061" Properties=species:S:1:pos:R:3:dft_force:R:3 dft_energy=-229.27535290566718 volume=28.851453106128414 dft_virial="2.0950144206442978e-05 0.0005614269353968601 1.2638316731986706e-07 0.0005614269353968604 -0.0018960325015649534 -0.0004297611572613977 1.2638316731984893e-07 -0.00042976115726139756 0.0006216426439066773" id=2343 pbc="T T T"
Si       0.04967095      -0.01382520       0.06476799      -0.77736365       0.22309391      -0.74317237
Si       0.15230329       1.52521846       2.30291921       0.77736339      -0.22309374       0.74317358
2
Lattice="3.768792497951264 0.0 0.0 1.8262142721640042 3.253882703168083 0.0 1.817170275768481 1.073749572058109 3.1160487581016727" Properties=species:S:1:pos:R:3:dft_force:R:3 dft_energy=-230.2097118365598 volume=38.212756305143365 dft_virial="-0.006923093137705119 0.25422152255657365 0.26412691177945163 0.2542215225565737 -0.008189990649154905 0.1565267320485069 0.2641269117794517 0.1565267320485069 -0.0040152081240675905" id=248 pbc="T T T"
Si       0.00000000       0.00000000       0.00000000       2.20509883       2.08417860      -0.30032669
Si       1.89292530       1.09288129       0.77278321      -2.20509942      -2.08417852       0.30032632
4
Lattice="3.824225825858363 -0.011201395535694254 0.08089338776001571 0.04044294388150242 3.793487548109075 0.06760294305691007 -0.08355397669964047 -0.1404554240216217 3.8882507803412762" Properties=species:S:1:pos:R:3:dft_force:R:3 dft_energy=-458.32975787164844 volume=56.47076621610693 dft_virial="-0.004233193224392557 0.0001383163256892362 0.0009309722283620662 0.0001383163256892362 -0.00287785070572036 0.0002299009691070753 0.0009309722283620662 0.0002299009691070753 -0.005157763200392853" id=2292 pbc="T T T"
Si       0.04967023      -0.01382676       0.06476751       3.51200241      -1.14233827      -2.27616451
Si       2.09138770       1.91567249      -0.02341325      -3.09138162       0.45295952      -1.57124988
Si       2.09700536       0.07674319       1.89213873      -3.76469340      -0.59170672       2.07784041
Si       0.05425731       1.89274388       1.89251136       3.34407334       1.28108059       1.76958117
2
Lattice="3.571143576724057 0.0 0.0 1.526910391451287 3.238268709391025 0.0 1.8706972544353533 1.4388014265670328 2.9532408229886236" Properties=species:S:1:pos:R:3:dft_force:R:3 dft_energy=-229.6690735859131 volume=34.15222930089227 dft_virial="-0.025631053467147887 0.24940470927231645 0.3365844586313572 0.24940470927231645 -0.013583398068090441 0.258105402119247 0.3365844586313573 0.25810540211924704 -0.01973200093783464" id=292 pbc="T T T"
Si       0.00000000       0.00000000       0.00000000       6.95389226      -5.01187771      -0.08275515
Si       1.82656159       1.05456590       0.74569035      -6.95389209       5.01187740       0.08275483
2
Lattice="2.663536498450012 -0.053080278844904356 -0.028082458807762223 -1.3920901351837744 2.3391413677373887 -0.007358367067329666 -0.00683976727401713 0.020630681777661013 4.768434699544796" Properties=species:S:1:pos:R:3:dft_force:R:3 dft_energy=-229.25341749780227 volume=29.357607460421388 dft_virial="2.7645799986297646e-06 -0.0011486146512673687 0.00033314180952131106 -0.0011486146512673684 0.0004156169850201338 9.94808482713377e-05 0.00033314180952131106 9.948084827133771e-05 0.0007082626538668589" id=2335 pbc="T T T"
Si       0.04967210      -0.01382698       0.06477055      -0.48924005       0.13836148      -2.31862265
Si       0.15230191       1.52521832       2.30292228       0.48924006      -0.13836136       2.31862178
4
Lattice="3.936269141203604 -0.09301564292870224 -0.012465435031912489 -0.014511284216541204 3.9738323162328353 0.04812892081826348 0.08565766586121713 0.04899786047194839 3.8520811247566598" Properties=species:S:1:pos:R:3:dft_force:R:3 dft_energy=-458.3680979223702 volume=60.24392263492146 dft_virial="0.0013554989660380953 0.00023384218066389753 0.0004275532967975325 0.00023384218066389747 0.00037162275445760967 -3.2121723441680706e-05 0.0004275532967975325 -3.212172344168071e-05 0.0024296265206324957" id=2301 pbc="T T T"
Si       0.04967262      -0.01382555       0.06476851       1.47499462      -2.11498306      -0.28935493
Si       2.09138743       1.91567183      -0.02341389      -0.99972104       2.30677983      -1.54690287
Si       2.09700810       0.07674379       1.89213658      -2.27507255      -1.81986750       1.23547045
Si       0.05425494       1.89274236       1.89251464       1.79980190       1.62807273       0.60079364
2
Lattice="3.581542572579547 0.0 0.0 1.5146123963526414 3.10851476110434 0.0 1.575013372279889 0.7739116915582169 2.9449548262909997" Properties=species:S:1:pos:R:3:dft_force:R:3 dft_energy=-229.52740999199457 volume=32.787000644211574 dft_virial="-0.027628460281403824 0.2692334244091914 0.2960748067995189 0.26923342440919124 -0.027069389475942545 0.14293514922611017 0.2960748067995188 0.14293514922611014 -0.02351821737472239" id=312 pbc="T T T"
Si       0.00000000       0.00000000       0.00000000       3.44012361       1.05137671      -0.88639725
Si       1.80670755       1.04310270       0.73758455      -3.44012399      -1.05137714       0.88639739
2
Lattice="3.584302571479552 0.0 0.0 1.7939172850359384 3.237505709695118 0.0 1.8262612721452727 0.906902638554799 2.961173819826935" Properties=species:S:1:pos:R:3:dft_force:R:3 dft_energy=-229.81977499937855 volume=34.3620533597854 dft_virial="-0.02641017162218487 0.29305288568309334 0.32608809496161245 0.2930528856830934 -0.013333202839738021 0.15567180911130135 0.32608809496161245 0.15567180911130124 -0.022446676103485077" id=301 pbc="T T T"
Si       0.00000000       0.00000000       0.00000000       3.03653646      -4.05742287       0.45746904
Si       1.81625742       1.04861702       0.74148384      -3.03653661       4.05742261      -0.45746910
2
Lattice="3.7428155083043686 0.0 0.0 1.5515513816306434 3.053200783149675 0.0 1.3819564492225456 0.9020116405041017 2.9962368058526145" Properties=species:S:1:pos:R:3:dft_force:R:3 dft_energy=-229.59086806641636 volume=34.239697569258226 dft_virial="-0.01173626511379657 0.26050078418036854 0.2341324252052256 0.26050078418036854 -0.030020696680059158 0.15932432751629527 0.2341324252052256 0.15932432751629527 -0.015244935149436594" id=289 pbc="T T T"
Si       0.00000000       0.00000000       0.00000000      -2.06261221       7.40621649      -2.83625999
Si       1.82655998       1.05456490       0.74568843       2.06261195      -7.40621644       2.83626027
2
Lattice="3.694531527547904 0.0 0.0 1.5828043691747944 3.165034738578356 0.0 2.0481241837220163 1.2113505172173809 2.992811807217645" Properties=species:S:1:pos:R:3:dft_force:R:3 dft_energy=-229.87980494998337 volume=34.99590803945014 dft_virial="-0.015575033921587994 0.25106835245284936 0.35171264686456966 0.2510683524528494 -0.018335976337129606 0.20812389199888942 0.35171264686456977 0.20812389199888945 -0.015851750689284995" id=306 pbc="T T T"
Si       0.00000000       0.00000000       0.00000000      -3.39399930      -2.76759882      -3.52087685
Si       1.81626000       1.04861721       0.74148408       3.39399918       2.76759882       3.52087665
2
Lattice="3.7362885109056974 0.0 0.0 1.9087852392554225 3.3009766843988206 0.0 2.031437190372602 1.1075415585903445 3.128479753147311" Properties=species:S:1:pos:R:3:dft_force:R:3 dft_energy=-230.2068562687348 volume=38.58479613150049 dft_virial="-0.008224773211304581 0.26183755453452473 0.29480887656257415 0.2618375545345248 -0.004974159700809313 0.158246313000258 0.2948088765625743 0.15824631300025804 -0.00319359860575038" id=231 pbc="T T T"
Si       0.00000000       0.00000000       0.00000000       2.47544011       0.08521859      -0.63637441
Si       1.91066872       1.10312493       0.78002699      -2.47543942      -0.08521841       0.63637596
4
Lattice="3.8796244437792953 0.029043508424736797 0.06693863332167009 0.07973998821970203 3.878570774199234 0.07199287130730825 -0.013417004652665305 0.12511321013624674 3.8221094467018437" Properties=species:S:1:pos:R:3:dft_force:R:3 dft_energy=-458.37131805856313 volume=57.473128627295786 dft_virial="-0.0015994600053388344 -0.00021599603215002874 0.0018551198004557357 -0.00021599603215002874 -0.002838589446701602 -0.0004533863021005029 0.0018551198004557365 -0.00045338630210050305 -0.0015160440882120612" id=2300 pbc="T T T"
Si       0.04967277      -0.01382780       0.06476785       2.28773468      -1.46263814      -0.43432550
Si       2.09138818       1.91567237      -0.02341228      -2.25010395       1.83113540      -1.49793579
Si       2.09700727       0.07674473       1.89213900      -2.17855549      -0.91505718       1.22586585
Si       0.05425514       1.89274487       1.89251394       2.14093073       0.54655733       0.70639729
4
Lattice="3.7675111684619362 -0.020237061934537833 -0.07628172959798779 -0.00880883648924643 3.858844302061201 -0.08639719556647826 -0.0026738389343439854 0.06193381531633564 3.878714564141927" Properties=species:S:1:pos:R:3:dft_force:R:3 dft_energy=-458.2800687010882 volume=56.40839740587279 dft_virial="-0.003073062997622166 -0.0011150171879491739 -0.0008296719542846072 -0.0011150171879491739 -0.0047844035369473655 0.0005675222234382771 -0.0008296719542846072 0.0005675222234382771 -0.005016607768884082" id=2309 pbc="T T T"
Si       0.04967039      -0.01382752       0.06477051       4.10009307      -1.30416818      -1.50192166
Si       2.09138949       1.91567219      -0.02341446      -4.32382745       1.19080129      -2.06133661
Si       2.09700868       0.07674309       1.89213841      -4.48593297      -1.91422367       1.45673182
Si       0.05425430       1.89274506       1.89251223       4.70966720       2.02759014       2.10652887
4
Lattice="3.9306593034393993 0.1479960110163278 -0.010849135676087092 -0.06083686575352387 3.967761778652243 0.019406632265504802 0.16200991543109927 0.07213417125099329 3.780304723363077" Properties=species:S:1:pos:R:3:dft_force:R:3 dft_energy=-458.370612772788 volume=58.993349964574094 dft_virial="-0.00019662894740039594 -1.3669893164976111e-05 0.0012977695926024613 -1.3669893164976126e-05 -0.0007475161632398709 0.0006038616895130785 0.0012977695926024622 0.0006038616895130785 0.0012946875015154202" id=2284 pbc="T T T"
Si       0.04967215      -0.01382771       0.06476867       1.97028062      -2.29442565       0.17300566
Si       2.09138754       1.91567253      -0.02341324      -1.62345419       2.02189545      -0.36675830
Si       2.09700882       0.07674267       1.89213685      -2.20696035      -1.80298526       0.73843971
Si       0.05425694       1.89274460       1.89251441       1.86013418       2.07551906      -0.54468821
2
Lattice="3.674871535383376 0.0 0.0 2.002647201846825 3.124712754648645 0.0 1.3682774546742964 1.2013705211948988 3.02082179605429" Properties=species:S:1:pos:R:3:dft_force:R:3 dft_energy=-229.7597165391087 volume=34.68784885075905 dft_virial="-0.014359977009883805 0.33218665574641476 0.22845692210942564 0.33218665574641476 -0.023950115604599406 0.20676534684956976 0.22845692210942564 0.20676534684956976 -0.012818215218055908" id=271 pbc="T T T"
Si       0.00000000       0.00000000       0.00000000       3.26308168       4.79626829      -1.69055377
Si       1.84974926       1.06795284       0.75515712      -3.26308158      -4.79626844       1.69055374
2
Lattice="3.6830575321208547 0.0 0.0 1.7164693159027544 3.2273947137248458 0.0 1.8433412653380574 1.0622425766442114 2.90100184380842" Properties=species:S:1:pos:R:3:dft_force:R:3 dft_energy=-229.82059681768433 volume=34.48328178475378 dft_virial="-0.016734887400248834 0.2766613398299298 0.3330727648247112 0.27666133982992985 -0.012888822362634127 0.19031896099501935 0.3330727648247113 0.19031896099501938 -0.03148192711485271" id=280 pbc="T T T"
Si       0.00000000       0.00000000       0.00000000       0.45929946      -2.14173702       7.60521916
Si       1.83770305       1.06099775       0.75023969      -0.45929921       2.14173658      -7.60521991
2
Lattice="3.6543335435687734 0.0 0.0 1.7403033064037399 3.319859676873021 0.0 1.7362673080122832 1.1674425347168662 3.1609007402259572" Properties=species:S:1:pos:R:3:dft_force:R:3 dft_energy=-230.09116695892632 volume=38.34765133120546 dft_virial="-0.014087395392359725 0.23839552856396964 0.24920792068303707 0.23839552856396964 -0.004433943429340268 0.16547010604582288 0.24920792068303718 0.16547010604582293 -0.0007393555004948703" id=245 pbc="T T T"
Si       0.00000000       0.00000000       0.00000000       9.71948756      -1.03552181      -2.00485909
Si       1.89292208       1.09287827       0.77278333      -9.71948723       1.03552199       2.00485935
2
Lattice="2.6914514173245467 0.14049329400652866 -0.03353534663451886 -1.3144664461206235 2.2492607335592316 0.07972959822384297 0.08603186571208013 0.1415751935753386 4.702889355667832" Properties=species:S:1:pos:R:3:dft_force:R:3 dft_energy=-229.2353896473465 volume=29.322052185297803 dft_virial="0.0018686395975321798 0.0009495551873557043 0.00022598972893113722 0.0009495551873557048 -0.0020046461185729723 0.0004897489452654395 0.00022598972893113722 0.0004897489452654395 0.0007129167320391526" id=2330 pbc="T T T"
Si       0.04967030      -0.01382611       0.06476826       0.03544841       0.35237541      -3.37180006
Si       0.15230061       1.52521865       2.30292255      -0.03544844      -0.35237519       3.37179653
4
Lattice="3.879958203646275 0.027503169038637622 -0.13645548561579343 0.03629794553348764 3.8430764583454606 0.06140098552869447 0.006416357442766724 0.04774508097124249 3.914353599938022" Properties=species:S:1:pos:R:3:dft_force:R:3 dft_energy=-458.36556077625 volume=58.35468965609826 dft_virial="-0.0011334716646350274 3.988489670300964e-05 -2.692482451754093e-05 3.988489670300962e-05 6.595555623857904e-05 0.00010631866314340363 -2.692482451754093e-05 0.00010631866314340367 -0.0017314498027127645" id=2289 pbc="T T T"
Si       0.04967009      -0.01382528       0.06476786       2.19267716      -0.82431294      -1.32500469
Si       2.09139089       1.91567032      -0.02341485      -2.72770542       1.07075416      -2.47251195
Si       2.09700712       0.07674421       1.89213984      -1.70209159      -0.69423805       2.00401399
Si       0.05425743       1.89274358       1.89251323       2.23712544       0.44780267       1.79351080
4
Lattice="3.7812945929685657 -0.15712191737920633 0.02408370040146366 0.06261095504646225 3.887725970550439 0.1994414805127839 -0.1022263392577878 -0.064560354269531 3.866173749140057" Properties=species:S:1:pos:R:3:dft_force:R:3 dft_energy=-458.29753896835877 volume=56.93461690698444 dft_virial="-0.003219399643001102 -0.002895964455918104 0.00022942108903948054 -0.0028959644559181045 -0.005577732317426888 -0.0008515249064436224 0.0002294210890394804 -0.0008515249064436221 -0.004020129141466751" id=2299 pbc="T T T"
Si       0.04967284      -0.01382558       0.06476737       3.86520606      -1.40541569      -1.28918341
Si       2.09138916       1.91567147      -0.02341405      -4.01021045       1.15493349      -2.56895024
Si       2.09700808       0.07674245       1.89213933      -5.15408904      -2.91463726       2.14471350
Si       0.05425636       1.89274399       1.89251351       5.29909452       3.16511812       1.71342008
2
Lattice="3.6630195401069776 0.0 0.0 1.8479152635150946 3.1558137422533754 0.0 1.8187642751331938 1.3671174551366128 3.0422937874966474" Properties=species:S:1:pos:R:3:dft_force:R:3 dft_energy=-229.89982663756672 volume=35.16833024623344 dft_virial="-0.018112822878587512 0.2979224551017222 0.3039479733085329 0.2979224551017221 -0.01924518478936981 0.23430810987493175 0.3039479733085328 0.23430810987493172 -0.011734668464895737" id=294 pbc="T T T"
Si       0.00000000       0.00000000       0.00000000      -0.66399098      -1.54624697      -5.11650944
Si       1.82656181       1.05456647       0.74569054       0.66399127       1.54624719       5.11651024
2
Lattice="3.7111325209315935 0.0 0.0 1.695173324390252 3.208526721244666 0.0 1.8380072674639172 0.8548796592885088 3.109798760592603" Properties=species:S:1:pos:R:3:dft_force:R:3 dft_energy=-230.07816680067165 volume=37.029206831483314 dft_virial="-0.012006982401068792 0.24776479549859481 0.2801744908583802 0.24776479549859481 -0.01240717716053595 0.12720692338891385 0.2801744908583802 0.12720692338891385 -0.004738768622231042" id=262 pbc="T T T"
Si       0.00000000       0.00000000       0.00000000       2.08710847       3.06679019      -2.50944640
Si       1.86282448       1.07550250       0.76049507      -2.08710879      -3.06679012       2.50944660
4
Lattice="3.8974291666832395 0.02127106152243826 0.15382619869271194 -0.09872572065295608 3.8439850879833273 -0.10294965896950942 0.07513945005324223 0.10286115900478097 3.928357064356955" Properties=species:S:1:pos:R:3:dft_force:R:3 dft_energy=-458.3571865133477 volume=58.856672746441916 dft_virial="-0.0011805423479319442 -0.0006476749774274587 0.0010589681882969524 -0.000647674977427459 0.0008869187799614178 -0.000726463873541707 0.0010589681882969527 -0.000726463873541707 -0.0010784608442729784" id=2304 pbc="T T T"
Si       0.04966917      -0.01382435       0.06476744       3.15737796      -0.73926854      -1.85015876
Si       2.09138815       1.91567223      -0.02341598      -1.93138460       0.79794962      -1.87102378
Si       2.09700732       0.07674243       1.89213770      -3.63430316      -0.74883494       2.29574049
Si       0.05425479       1.89274557       1.89251438       2.40830785       0.69014583       1.42544344
2
Lattice="2.690789017588546 0.043847182524746287 0.011969205229684414 -1.3306384896752708 2.2119157784430286 0.11566152390320748 0.08355686669848868 -0.06565409383362211 4.437432781465302" Properties=species:S:1:pos:R:3:dft_force:R:3 dft_energy=-229.20844405084318 volume=26.689297656178102 dft_virial="-0.006555330738524998 0.0018735417698768219 0.0009610163995069542 0.0018735417698768219 -0.007132146474952238 0.0021455373237164992 0.000961016399506954 0.0021455373237164992 -0.00853680769012458" id=2336 pbc="T T T"
Si       0.04967178      -0.01382624       0.06476932      -0.06755980       0.04741119      -3.14365869
Si       0.15230217       1.52521782       2.30291919       0.06755988      -0.04741108       3.14365873
4
Lattice="3.8597909416839187 -0.006257327506147957 0.025912669672529663 -0.12078990185929722 3.756842302714003 -0.0811070676748538 -0.05222231918684338 -0.06687286334788267 3.977381394818353" Properties=species:S:1:pos:R:3:dft_force:R:3 dft_energy=-458.3480079556426 volume=57.655845101234014 dft_virial="-0.0012755280840931408 -0.0017466506198452556 0.0005929753735137089 -0.0017466506198452556 -0.0015370957496967446 0.000179309881293989 0.0005929753735137089 0.000179309881293989 -0.0033903554095811375" id=2305 pbc="T T T"
Si       0.04967259      -0.01382427       0.06476895       3.21010645       0.10266251      -2.65907460
Si       2.09138840       1.91566996      -0.02341552      -3.33945155      -1.52002932      -2.50423849
Si       2.09700717       0.07674445       1.89213756      -3.04484757       0.39134332       2.65846011
Si       0.05425674       1.89274385       1.89251153       3.17419138       1.02602233       2.50485159
2
Lattice="3.7456905071585407 0.0 0.0 1.9080392395527401 3.135876750199245 0.0 1.7875372875786808 0.8652156551691074 2.8942958464810884" Properties=species:S:1:pos:R:3:dft_force:R:3 dft_energy=-229.72485036814032 volume=33.996467824188926 dft_virial="-0.015093563268618061 0.3216972815550911 0.32548662844260745 0.3216972815550912 -0.02066933987132873 0.15936261548009326 0.32548662844260745 0.1593626154800932 -0.031305934185815266" id=310 pbc="T T T"
Si       0.00000000       0.00000000       0.00000000      -6.85113249      -0.68313308       3.14459423
Si       1.80670477       1.04310188       0.73758525       6.85113261       0.68313335      -3.14459411
2
Lattice="2.5790754121118993 0.0976694310739393 -0.04598013167466139 -1.2221746929034156 2.246714214574144 0.11966717230676006 -0.028527768630284406 -0.07793170894039006 4.793336599620167" Properties=species:S:1:pos:R:3:dft_force:R:3 dft_energy=-229.17577518383803 volume=28.36329568347986 dft_virial="-0.006638991659639996 0.0026236829234030836 -2.335798014045992e-05 0.002623682923403085 -0.00482235025102545 0.00043810156422074303 -2.335798014045991e-05 0.00043810156422074303 -0.0015521325949784891" id=2346 pbc="T T T"
Si       0.04967225      -0.01382707       0.06476930      -0.13436054       0.02091527      -5.29736198
Si       0.15230304       1.52521873       2.30291889       0.13436043      -0.02091521       5.29736365
2
Lattice="3.6873185304226377 0.0 0.0 1.70325532116918 3.236598710056602 0.0 2.0281481916834294 1.0346825876282193 3.020596796143963" Properties=species:S:1:pos:R:3:dft_force:R:3 dft_energy=-230.03325631315207 volume=36.04892099161865 dft_virial="-0.013992840171919907 0.25785454538837443 0.334202323340009 0.25785454538837443 -0.011385192317178843 0.1665337846359886 0.334202323340009 0.16653378463598856 -0.014055732735071144" id=267 pbc="T T T"
Si       0.00000000       0.00000000       0.00000000       1.96987004      -0.34114648       1.22341865
Si       1.86282475       1.07550348       0.76049566      -1.96987024       0.34114638      -1.22341853
4
Lattice="3.8525532845684802 -0.045766021759994696 -0.06864455264177753 0.021584261397612742 3.856203003113888 -0.03594743567318303 0.08427959641044543 0.16106352580828198 3.815219239447929" Properties=species:S:1:pos:R:3:dft_force:R:3 dft_energy=-458.3474075272375 volume=56.72804896523866 dft_virial="-0.0021127516624918725 -0.000633179560773516 -6.769215123601462e-07 -0.000633179560773516 -0.004117826084273458 -0.00020622862901046422 -6.769215123601543e-07 -0.00020622862901046422 -0.003571626430909899" id=2324 pbc="T T T"
Si       0.04967172      -0.01382442       0.06476902       2.68075070      -1.11581246      -0.64806724
Si       2.09138961       1.91566958      -0.02341431      -2.50789736       1.48649011      -1.26578057
Si       2.09700646       0.07674471       1.89213833      -3.01479528      -1.59222596       0.96858033
Si       0.05425739       1.89274315       1.89251358       2.84194285       1.22155123       0.94526993
2
Lattice="3.693276528048083 0.0 0.0 1.9014672421720034 3.2831346915097295 0.0 1.3434094645854104 1.440628425838884 2.9246648343775576" Properties=species:S:1:pos:R:3:dft_force:R:3 dft_energy=-229.78962078405283 volume=35.463094502729184 dft_virial="-0.012129261761064351 0.2874389174898075 0.2259614384414131 0.28743891748980754 -0.006363473055730297 0.24496032201806708 0.22596143844141314 0.24496032201806708 -0.019053077390778335" id=270 pbc="T T T"
Si       0.00000000       0.00000000       0.00000000       2.89177708      -3.45919888       0.76426648
Si       1.84975175       1.06795317       0.75515724      -2.89177743       3.45919872      -0.76426648
2
Lattice="2.6437396863400133 -0.022325821102064818 0.023637440579320098 -1.408246678744599 2.4035204320791728 0.029830878110931342 -0.0909752237419094 0.012926194848277096 4.492138809662265" Properties=species:S:1:pos:R:3:dft_force:R:3 dft_energy=-229.2785221753951 volume=28.40686380615127 dft_virial="-0.0003426160027912779 -0.00020505554963925744 -5.817718549025218e-07 -0.00020505554963925752 -0.001167440214718003 0.00030104526953296843 -5.817718549024962e-07 0.00030104526953296843 -0.0028360903819303154" id=2344 pbc="T T T"
Si       0.04967204      -0.01382681       0.06476692      -0.36778966       0.21166571      -1.16897186
Si       0.15230128       1.52521731       2.30292214       0.36778959      -0.21166565       1.16897256
4
Lattice="3.7853668713455626 0.12858533875243314 -0.2764018598402964 0.06489416413649139 3.8430241583663047 -0.07858644867944414 -0.0040163183993000475 0.013129214767363695 3.8353862214103978" Properties=species:S:1:pos:R:3:dft_force:R:3 dft_energy=-458.2132765063161 volume=55.761786901207046 dft_virial="-0.006129131399327018 0.0010837000960164161 -0.0025205995306671917 0.0010837000960164155 -0.004617028780546396 0.00013980600617767518 -0.002520599530667191 0.00013980600617767523 -0.0063961572214846765" id=2316 pbc="T T T"
Si       0.04967111      -0.01382454       0.06476794       5.47819201      -1.88147637       0.37538559
Si       2.09138999       1.91567065      -0.02341439      -6.40981124       1.50213597      -2.78423036
Si       2.09700691       0.07674461       1.89213796      -4.86886589      -0.12891067      -0.35352264
Si       0.05425745       1.89274616       1.89251285       5.80048426       0.50825076       2.76236833
2
Lattice="3.6444585475044438 0.0 0.0 1.7753572924330063 3.1231777552604174 0.0 2.007577199881979 1.0066345988067191 2.950413824115321" Properties=species:S:1:pos:R:3:dft_force:R:3 dft_energy=-229.72915597911202 volume=33.58247127018857 dft_virial="-0.01978881723459578 0.3102542221062797 0.37358227102500424 0.3102542221062797 -0.02605709555965715 0.18648994807327138 0.37358227102500424 0.18648994807327135 -0.026258316094925568" id=275 pbc="T T T"
Si       0.00000000       0.00000000       0.00000000       2.62179012       5.27736515       4.47204540
Si       1.84975095       1.06795347       0.75515842      -2.62179022      -5.27736487      -4.47204560
4
Lattice="3.786629310842419 -0.06016597602090635 0.030647597785428474 0.13248392719865434 3.93460273186775 0.0973918411845725 -0.09665942147647769 -0.07331497078038676 3.812534010518125" Properties=species:S:1:pos:R:3:dft_force:R:3 dft_energy=-458.3167357801623 volume=56.871846354316894 dft_virial="-0.002641218735085599 -0.0010515071259318907 0.0007611035808842031 -0.0010515071259318911 -0.004988882241428049 -0.000989305155081822 0.0007611035808842035 -0.000989305155081822 -0.003275386485870003" id=2279 pbc="T T T"
Si       0.04967157      -0.01382514       0.06476890       4.22732492      -2.41158258      -0.62388075
Si       2.09139083       1.91567113      -0.02341230      -3.96333444       2.24803593      -1.38855274
Si       2.09700603       0.07674361       1.89213982      -4.42587593      -2.59728756       1.45180453
Si       0.05425715       1.89274308       1.89251180       4.16188281       2.76082948       0.56063043
2
Lattice="3.7075445223615873 0.0 0.0 1.7652222964722997 3.1731597353401457 0.0 1.7822832896726566 1.144347543921353 3.129966752554669" Properties=species:S:1:pos:R:3:dft_force:R:3 dft_energy=-230.07027424100616 volume=36.822903871484264 dft_virial="-0.011821600526933646 0.2656983519690749 0.2720606999864964 0.265698351969075 -0.017002665743721026 0.17737917728720465 0.27206069998649646 0.17737917728720465 -0.00403209614914138" id=254 pbc="T T T"
Si       0.00000000       0.00000000       0.00000000       3.96999891       4.62499903      -2.11869475
Si       1.87711210       1.08375162       0.76632854      -3.96999894      -4.62499886       2.11869521
2
Lattice="3.672571536300038 0.0 0.0 1.743642305072985 3.137749749452763 0.0 1.7322933095961166 1.2833864885075117 2.961371819748022" Properties=species:S:1:pos:R:3:dft_force:R:3 dft_energy=-229.8039045779429 volume=34.125695153243214 dft_virial="-0.01804798534240263 0.29273332591511164 0.3091745726954713 0.29273332591511164 -0.022350324563379896 0.23429360047846176 0.30917457269547133 0.23429360047846176 -0.022413102186842275" id=293 pbc="T T T"
Si       0.00000000       0.00000000       0.00000000       0.14498857       1.04486589       0.75219012
Si       1.82656022       1.05456319       0.74568823      -0.14498845      -1.04486575      -0.75219002
2
Lattice="3.821532476931795 0.0 0.0 2.0228131938096876 3.226747713982707 0.0 2.168476135755858 1.3741524523328212 3.026266793884191" Properties=species:S:1:pos:R:3:dft_force:R:3 dft_energy=-230.03029507457086 volume=37.317262570048186 dft_virial="-0.00298911137381962 0.2959636888821318 0.3381389535302434 0.2959636888821318 -0.009400501771597222 0.2187890386007209 0.3381389535302434 0.2187890386007209 -0.011852501838565377" id=240 pbc="T T T"
Si       0.00000000       0.00000000       0.00000000      -4.91457736      -1.53639738      -1.18030845
Si       1.89292116       1.09287855       0.77278143       4.91457681       1.53639701       1.18030819
4
Lattice="3.8383803102171057 -0.06823676280430181 -0.07607300968117292 -0.005098617967950562 3.865889269253436 -0.05640699751904374 0.04996602008608929 -0.07295727092294771 3.7986273760606006" Properties=species:S:1:pos:R:3:dft_force:R:3 dft_energy=-458.3281643361243 volume=56.36463517198953 dft_virial="-0.003148397951820134 -0.0008760723895911918 0.0001837185324829247 -0.0008760723895911918 -0.0052931607503556265 0.0004043330657175923 0.00018371853248292467 0.0004043330657175921 -0.003371157812786692" id=2322 pbc="T T T"
Si       0.04967133      -0.01382484       0.06476795       2.82423939      -1.57538223      -0.77307966
Si       2.09138877       1.91567255      -0.02341321      -3.15491513       1.33431364      -0.37172103
Si       2.09700540       0.07674438       1.89213729      -3.41336916      -1.76761248       0.51203601
Si       0.05425497       1.89274618       1.89251172       3.74404223       2.00868194       0.63276766
2
Lattice="3.738506510021716 0.0 0.0 1.8033512812760282 3.203789723132593 0.0 1.8486362632277409 0.9987236019596395 3.013410799007936" Properties=species:S:1:pos:R:3:dft_force:R:3 dft_energy=-230.06718026905753 volume=36.092792563003016 dft_virial="-0.010360601580048432 0.275951606891152 0.30158467228393665 0.2759516068911518 -0.013871761081074466 0.1628435533398721 0.3015846722839366 0.1628435533398722 -0.015440008186657068" id=250 pbc="T T T"
Si       0.00000000       0.00000000       0.00000000       1.50761747       3.51276014       3.53784545
Si       1.87711343       1.08375333       0.76632844      -1.50761684      -3.51275876      -3.53784451
2
Lattice="3.6371095504333795 0.0 0.0 1.7513013020204988 3.2197907167554116 0.0 1.8430932654368974 1.1649045357283834 2.971326815780468" Properties=species:S:1:pos:R:3:dft_force:R:3 dft_energy=-229.9183854065319 volume=34.79641073537731 dft_virial="-0.020137669599007615 0.2814740344252395 0.3219728900578163 0.28147403442523955 -0.014281691518201254 0.20238355390840465 0.32197289005781643 0.20238355390840465 -0.02087218368730976" id=279 pbc="T T T"
Si       0.00000000       0.00000000       0.00000000       2.82695743      -2.23078655       1.88795865
Si       1.83770219       1.06099746       0.75023922      -2.82695722       2.23078683      -1.88795872
2
Lattice="3.6966625266985966 0.0 0.0 1.7515393019256442 3.1474307455944106 0.0 1.9100802387393017 1.0988565620517416 3.0743647747147853" Properties=species:S:1:pos:R:3:dft_force:R:3 dft_energy=-230.00868780092793 volume=35.770201235408116 dft_virial="-0.013828770020217696 0.27653501516362466 0.3109577373815631 0.27653501516362455 -0.020653918513661666 0.18036296164628962 0.310957737381563 0.18036296164628965 -0.00947876825575264" id=266 pbc="T T T"
Si       0.00000000       0.00000000       0.00000000       1.76587089       4.62210025      -1.29953242
Si       1.86282456       1.07550045       0.76049332      -1.76587089      -4.62210009       1.29953270
4
Lattice="3.754906333485582 0.010742085718751751 0.028819558513991823 0.1407556739019574 3.829211193871449 -0.12209316133988438 0.19314667302157357 0.030452217863296962 3.833385422207814" Properties=species:S:1:pos:R:3:dft_force:R:3 dft_energy=-458.2191095547239 volume=55.10439811799381 dft_virial="-0.005698479426870737 0.0005197291539295271 0.0014417316341068076 0.0005197291539295272 -0.00678193983737048 0.0010810241395089015 0.0014417316341068076 0.0010810241395089013 -0.008070259072934882" id=2303 pbc="T T T"
Si       0.04967169      -0.01382435       0.06477039       5.66055389      -1.48731527      -2.27189392
Si       2.09138849       1.91566933      -0.02341321      -5.51736321       0.94163296       0.90983137
Si       2.09700593       0.07674370       1.89213745      -5.72886809      -0.77454151       1.63879864
Si       0.05425430       1.89274305       1.89251414       5.58567776       1.32022588      -0.27673377
4
Lattice="3.9254811755031374 -0.05647275749283515 -0.14791231104968633 0.03134547750728916 3.787817460368883 0.09426461243092661 0.0028808788518284198 0.026233829544531694 3.8318863728052586" Properties=species:S:1:pos:R:3:dft_force:R:3 dft_energy=-458.3895774189921 volume=56.974894747632085 dft_virial="-0.0043659579920767855 -0.001173300546856124 0.00035886339019212173 -0.001173300546856124 -0.0005474855916021166 0.0013510544701626664 0.00035886339019212184 0.0013510544701626672 -0.0022085822845038707" id=2302 pbc="T T T"
Si       0.04967000      -0.01382484       0.06476981       2.02560635      -0.23171864      -0.93261731
Si       2.09138847       1.91567181      -0.02341239      -2.31706706       0.49999890      -1.42130791
Si       2.09700757       0.07674284       1.89213668      -1.56385940      -0.10319517       1.05427823
Si       0.05425545       1.89274529       1.89251507       1.85531022      -0.16508365       1.29964251
2
Lattice="3.870109457571484 0.0 0.0 2.1292561513869463 3.3321086719911954 0.0 1.5437503847397236 1.2321775089168028 3.206277722141003" Properties=species:S:1:pos:R:3:dft_force:R:3 dft_energy=-230.10145082899186 volume=41.34695606478759 dft_virial="0.0005260807305474567 0.26036979659609455 0.18882846755296892 0.2603697965960946 -0.0007342436549731616 0.15619440141916055 0.18882846755296898 0.15619440141916052 0.0037759971385591257" id=246 pbc="T T T"
Si       0.00000000       0.00000000       0.00000000      -2.09016435      -3.76895400      -5.31900264
Si       1.89292364       1.09287936       0.77278347       2.09016421       3.76895408       5.31900211
2
Lattice="3.7704474972916655 0.0 0.0 1.749625302688467 3.4112966404309044 0.0 2.025060192914148 1.0751515714993438 3.16808373736318" Properties=species:S:1:pos:R:3:dft_force:R:3 dft_energy=-230.19557456705752 volume=40.74825698079413 dft_virial="-0.005830475163855532 0.21165394766532028 0.26871792583168486 0.2116539476653203 0.0027809313428531573 0.1382837435367339 0.26871792583168486 0.13828374353673387 0.0011189939196442475" id=241 pbc="T T T"
Si       0.00000000       0.00000000       0.00000000       0.82096900      -4.63010511      -3.45607117
Si       1.89292246       1.09287852       0.77278116      -0.82096894       4.63010461       3.45607193
2
Lattice="3.9937834082813466 0.0 0.0 1.8996342429025435 3.3169966780140663 0.0 1.9353582286647826 1.1924845247364044 3.1578967414231975" Properties=species:S:1:pos:R:3:dft_force:R:3 dft_energy=-230.2259485753925 volume=41.83381486482081 dft_virial="0.005235944520635266 0.22753867159833358 0.24495343204304054 0.22753867159833358 -0.0012012057624965899 0.1539288673803911 0.24495343204304046 0.15392886738039105 0.00039032764801631096" id=229 pbc="T T T"
Si       0.00000000       0.00000000       0.00000000      -3.71110009      -0.32753974      -1.06962506
Si       1.93079620       1.11474513       0.78824261       3.71109539       0.32754106       1.06962517
2
Lattice="2.666299177348949 -0.03879625453778893 -0.05021068998857632 -1.338425226571874 2.3579028802600055 0.03119006756922765 -0.0024838590100603073 -0.03448683625530357 4.680627714540188" Properties=species:S:1:pos:R:3:dft_force:R:3 dft_energy=-229.26403591556857 volume=29.183732634047118 dft_virial="0.00034027305080135177 -0.0005925426029973947 0.00046517062000025594 -0.0005925426029973949 0.0004513378142169112 0.0002064643883441288 0.00046517062000025594 0.0002064643883441288 0.000985103602702542" id=2367 pbc="T T T"
Si       0.04967207      -0.01382579       0.06477105      -0.40229664       0.12808075      -2.05363415
Si       0.15230322       1.52521847       2.30291974       0.40229671      -0.12808114       2.05363336
2
Lattice="3.696803526642401 0.0 0.0 1.8033802812644704 3.304271683085601 0.0 1.9662612163484254 1.3277544708246936 2.979805812401172" Properties=species:S:1:pos:R:3:dft_force:R:3 dft_energy=-230.00279210805243 volume=36.39905272007786 dft_virial="-0.014127708401979498 0.26424174882819307 0.32111985714972985 0.26424174882819307 -0.005030042688968496 0.21713128674478352 0.32111985714972985 0.21713128674478352 -0.016379863237659335" id=282 pbc="T T T"
Si       0.00000000       0.00000000       0.00000000      -1.87703003      -7.58706669      -1.60456150
Si       1.83770328       1.06099922       0.75023763       1.87702990       7.58706670       1.60456161
2
Lattice="2.6881159886538795 -0.017403643063794282 -0.0036289385536899233 -1.3750589519715368 2.3323554504419097 -0.04190401329919457 -0.11225888525932595 0.017794082908184846 4.643428789365785" Properties=species:S:1:pos:R:3:dft_force:R:3 dft_energy=-229.28203223248673 volume=29.002575143772173 dft_virial="0.0005556943219248425 -0.0006927815887218436 1.7917755537711213e-05 -0.0006927815887218433 0.0004636845131256483 0.0009121181819461386 1.7917755537711223e-05 0.0009121181819461389 0.0004259054019303409" id=2357 pbc="T T T"
Si       0.04966937      -0.01382510       0.06477044      -0.58796663       0.18381241      -1.13752047
Si       0.15230320       1.52521758       2.30292091       0.58796659      -0.18381241       1.13752293
4
Lattice="3.8547388636974196 -0.04182657333005819 0.11820835288817116 -0.10668749747979735 3.860923811232415 0.12858872875108207 -0.10728489724170423 -0.0971290112893231 3.718716687908931" Properties=species:S:1:pos:R:3:dft_force:R:3 dft_energy=-458.3316928786724 volume=55.42743035024326 dft_virial="-0.006958369256770673 -0.00011257104226137074 0.0005363136172475545 -0.00011257104226137076 -0.006117318454807576 -0.0006894881349595544 0.0005363136172475544 -0.0006894881349595541 -0.004655014784378569" id=2294 pbc="T T T"
Si       0.04966957      -0.01382598       0.06476924       3.39376650      -1.38908521      -0.07090935
Si       2.09139084       1.91567050      -0.02341424      -3.40555908       1.62822159       0.39755561
Si       2.09700543       0.07674471       1.89213933      -3.97225680      -1.95744828      -0.01063383
Si       0.05425518       1.89274463       1.89251161       3.98404516       1.71830775      -0.31601461
2
Lattice="3.8471734667126016 0.0 0.0 2.1272111522019785 3.3524586638807254 0.0 2.066593176361216 1.0638875759885984 3.2319517119086583" Properties=species:S:1:pos:R:3:dft_force:R:3 dft_energy=-230.1886770156073 volume=41.68406494924636 dft_virial="-0.0008493120472143972 0.2585884050421482 0.2591271487545326 0.2585884050421482 0.0003393036145110639 0.1315901461608052 0.2591271487545326 0.1315901461608052 0.005046459107571389" id=238 pbc="T T T"
Si       0.00000000       0.00000000       0.00000000      -5.42874765      -4.38983761      -6.74695923
Si       1.91067028       1.10312656       0.78002831       5.42874791       4.38983770       6.74695942
2
Lattice="3.5458975867858227 0.0 0.0 1.7319503097328188 3.1030517632816133 0.0 1.8164002760753635 1.2293425100466888 2.9602888201796507" Properties=species:S:1:pos:R:3:dft_force:R:3 dft_energy=-229.54808142597835 volume=32.572365045316026 dft_virial="-0.03270838131947123 0.3179734191004417 0.3495830897002517 0.3179734191004417 -0.03054546295209259 0.2376938769586068 0.3495830897002517 0.2376938769586068 -0.02482757050186933" id=322 pbc="T T T"
Si       0.00000000       0.00000000       0.00000000       3.51389926       0.12789318      -2.31318420
Si       1.79778716       1.03795204       0.73394441      -3.51389942      -0.12789241       2.31318454
4
Lattice="3.807907622361967 -0.05795785690095017 0.14732718128288924 0.06306342486613081 3.955642333482436 0.033738056553729016 -0.14991514025146063 -0.0342859763353561 3.945891517368615" Properties=species:S:1:pos:R:3:dft_force:R:3 dft_energy=-458.30712660544117 volume=59.54202968370009 dft_virial="-0.0009800982691121932 -0.000844155678203909 0.0018409057291057286 -0.0008441556782039087 -0.00027612634087514557 -0.000635272475948142 0.0018409057291057286 -0.0006352724759481423 -0.00041594980922925564" id=2320 pbc="T T T"
Si       0.04967270      -0.01382556       0.06476954       3.78078408      -2.41661734      -2.87725111
Si       2.09138975       1.91567117      -0.02341227      -2.92509549       1.59095076      -2.23278728
Si       2.09700843       0.07674186       1.89213798      -4.32739246      -2.02423359       3.32339404
Si       0.05425724       1.89274486       1.89251431       3.47170360       2.84989324       1.78664725
2
Lattice="3.6167585585442485 0.0 0.0 1.9278922316403486 3.118876756974576 0.0 1.726639311849512 1.0186855940038062 2.9608158199696155" Properties=species:S:1:pos:R:3:dft_force:R:3 dft_energy=-229.72550494429282 volume=33.39866627551151 dft_virial="-0.02534697739925151 0.3389725959669184 0.3169598632810121 0.33897259596691853 -0.026197287394767486 0.1877963781409355 0.31695986328101217 0.18779637814093553 -0.023301564488409823" id=326 pbc="T T T"
Si       0.00000000       0.00000000       0.00000000      -1.50971890      -0.70773920      -2.00016464
Si       1.79778874       1.03795399       0.73394479       1.50971894       0.70773952       2.00016453
2
Lattice="3.6241205556101312 0.0 0.0 2.143929145539038 3.4082176416580365 0.0 1.976345212329458 1.185697527441356 3.054082782798154" Properties=species:S:1:pos:R:3:dft_force:R:3 dft_energy=-229.9678020874754 volume=37.72339410235868 dft_virial="-0.01615399511428789 0.301593433743103 0.3050933209776259 0.301593433743103 -0.0005744426158495532 0.1771100222828125 0.30509332097762604 0.17711002228281256 -0.010246814238599413" id=236 pbc="T T T"
Si       0.00000000       0.00000000       0.00000000       7.04850266      -4.61466237       1.89005667
Si       1.91067301       1.10312689       0.78002801      -7.04850217       4.61466350      -1.89005640
2
Lattice="3.5830125719936796 0.0 0.0 1.780530290371313 3.120023756517441 0.0 2.051261182471768 0.9100396373045511 2.9072468413194823" Properties=species:S:1:pos:R:3:dft_force:R:3 dft_energy=-229.5226151148778 volume=32.500357649452575 dft_virial="-0.028318704096909782 0.32540865542917435 0.4052775830347703 0.32540865542917435 -0.027537289052911234 0.17579040831486836 0.4052775830347702 0.17579040831486828 -0.0318896900290155" id=316 pbc="T T T"
Si       0.00000000       0.00000000       0.00000000       1.36689401       0.76359706       1.94840064
Si       1.80670816       1.04310270       0.73758597      -1.36689405      -0.76359706      -1.94840061
2
Lattice="2.693837046373757 0.08787385497795702 -0.027600358999902656 -1.321257593414018 2.250920402897772 0.10214231929127388 0.07200844130110286 -0.07354212068985637 4.5628218914915895" Properties=species:S:1:pos:R:3:dft_force:R:3 dft_energy=-229.24874433683078 volume=28.219620476100932 dft_virial="-0.0010178034589351358 0.0016482059642137863 0.00043650946331620004 0.0016482059642137859 -0.0031218574052533435 0.0009735529468660893 0.00043650946331619993 0.0009735529468660895 -0.002151763462635754" id=2368 pbc="T T T"
Si       0.04967173      -0.01382588       0.06477067      -0.12270450       0.05094615      -3.37362551
Si       0.15230210       1.52521876       2.30292195       0.12270480      -0.05094615       3.37362332
2
Lattice="2.741504977375747 -0.08060010787690215 0.0200375320140603 -1.4106055378044782 2.3173376464272417 -0.04087850370791046 0.0057739976987785996 -0.02369481055645534 4.530280814460806" Properties=species:S:1:pos:R:3:dft_force:R:3 dft_energy=-229.26714966063042 volume=28.263536023768403 dft_virial="-0.0012261419227097645 -0.0010998952859142173 -7.858704679026022e-05 -0.0010998952859142173 -0.0017857141590363473 -0.0008597573908052062 -7.85870467902602e-05 -0.0008597573908052062 -0.0016495086301596864" id=2365 pbc="T T T"
Si       0.04967120      -0.01382644       0.06476797      -0.31773232       0.04389388      -0.13809514
Si       0.15230268       1.52521750       2.30292240       0.31773198      -0.04389364       0.13809510
2
Lattice="3.8674494586316244 0.0 0.0 1.9034262413912462 3.2409227083332763 0.0 1.723932312928384 1.0673525746076264 3.2566647020593193" Properties=species:S:1:pos:R:3:dft_force:R:3 dft_energy=-230.15849137914248 volume=40.81937658878174 dft_virial="0.00031517510355494484 0.24312746129954108 0.2165017870505727 0.24312746129954108 -0.00792118790916254 0.1373313708186708 0.2165017870505727 0.1373313708186708 0.0054363234295030614" id=225 pbc="T T T"
Si       0.00000000       0.00000000       0.00000000       2.33538026       6.49392926      -1.94169124
Si       1.93079593       1.11474612       0.78824313      -2.33538008      -6.49392933       1.94169072
2
Lattice="3.6165835586139945 0.0 0.0 1.672047333607094 3.1766287339575796 0.0 1.8043402808818634 1.028217590204838 2.9777128132353345" Properties=species:S:1:pos:R:3:dft_force:R:3 dft_energy=-229.84268084051786 volume=34.20958244406519 dft_virial="-0.022214965941214387 0.27837497321500254 0.3220241422178361 0.27837497321500254 -0.01933482513012515 0.18113502796895484 0.32202414221783615 0.1811350279689549 -0.02105040786360484" id=284 pbc="T T T"
Si       0.00000000       0.00000000       0.00000000       4.49479891       0.71948949       2.14887343
Si       1.83770337       1.06099720       0.75023772      -4.49479872      -0.71948941      -2.14887281
2
Lattice="3.655965542918341 0.0 0.0 2.0482751836618354 3.14288874740462 0.0 1.7257753121938584 0.9548726194364078 2.9716578156485483" Properties=species:S:1:pos:R:3:dft_force:R:3 dft_energy=-229.8061071554954 volume=34.145218895724135 dft_virial="-0.020499946041737035 0.34701472411333784 0.3043614316003664 0.34701472411333795 -0.02151024268445876 0.16846935787802633 0.30436143160036644 0.1684693578780263 -0.020444705606836873" id=308 pbc="T T T"
Si       0.00000000       0.00000000       0.00000000      -3.20269464      -1.87622848      -2.10460151
Si       1.80670543       1.04310264       0.73758330       3.20269488       1.87622871       2.10460178
