2
Lattice="5.032532250312941 -0.05265396813376273 0.05654449848461977 -2.3899119310937627 4.46563185509734 -0.06533440837522657 0.09070949959861144 0.06680663730713877 8.786726155621075" Properties=species:S:1:pos:R:3:dft_force:R:3 dft_energy=-8.424152293536945 volume=196.35256883029447 dft_virial="1.6109846893154656e-05 1.4878689235096555e-05 -5.969137447019598e-06 1.4878689235096546e-05 4.326634606284257e-05 -1.0507943361264545e-05 -5.969137447019598e-06 -1.0507943361264549e-05 5.491343630139322e-05" id=2369 pbc="T T T"
Si       0.09386434      -0.02612786       0.12239161       0.00025796       0.00063025      -0.00384789
Si       0.28781052       2.88224708       4.35188960      -0.00025796      -0.00063025       0.00384796
2
Lattice="5.0736664290937235 -0.01890338395890149 -0.015789738915139347 -2.5719567886862005 4.272251399757289 0.14538322591163544 -0.10713666203284831 0.4337353825353457 8.593063224019916" Properties=species:S:1:pos:R:3:dft_force:R:3 dft_energy=-8.423173280813774 volume=185.5360172454748 dft_virial="-0.0001762300384492738 -3.388141987567764e-05 -3.491903370340764e-05 -3.388141987567764e-05 -0.00014916724170960195 4.502347804458175e-05 -3.491903370340765e-05 4.502347804458176e-05 -0.0001479262066046471" id=2329 pbc="T T T"
Si       0.09386519      -0.02612745       0.12239416       0.00080590       0.00262645      -0.00608167
Si       0.28781083       2.88224551       4.35189156      -0.00080590      -0.00262646       0.00608174
4
Lattice="7.26769210910892 0.005775910105396174 -0.062320824329763366 0.043229998436560245 7.311867480833847 0.1642188253944466 0.1802280371017 0.2917953510063459 7.219065449702915" Properties=species:S:1:pos:R:3:dft_force:R:3 dft_energy=-16.841498841518497 volume=383.35549061802357 dft_virial="-5.298863762380531e-05 6.804571421613327e-06 3.446374572113729e-05 6.8045714216133285e-06 -0.00013359481437059113 7.021076401618012e-06 3.446374572113728e-05 7.021076401618009e-06 -0.00012814653792582676" id=2307 pbc="T T T"
Si       0.09386338      -0.02612756       0.12239834       0.00735610      -0.00326527      -0.00149515
Si       3.95215612       3.62009675      -0.04424928      -0.00669884       0.00412753      -0.00373294
Si       3.96277424       0.14502418       3.57562233      -0.00812679      -0.00329343       0.00319547
Si       0.10253032       3.57677317       3.57633071       0.00746954       0.00243120       0.00203262
2
Lattice="7.100642133829082 0.0 0.0 2.963587561383984 6.15026107123229 0.0 3.767204934237841 2.088056660857494 5.859619303538722" Properties=species:S:1:pos:R:3:dft_force:R:3 dft_energy=-8.455855415022517 volume=255.894279653019 dft_virial="-0.0002584108527206075 0.007946113845072175 0.010908872842289417 0.007946113845072171 -0.00028995698838651837 0.005963517199948966 0.010908872842289414 0.005963517199948966 -0.0001548207599492746" id=256 pbc="T T T"
Si       0.00000000       0.00000000       0.00000000       0.00604322      -0.00024310      -0.00402149
Si       3.54722817       2.04799449       1.44815218      -0.00604321       0.00024310       0.00402148
4
Lattice="7.119567117357588 -0.038242519864880434 -0.1441516347044331 -0.01664629507564847 7.2921617947514745 -0.16326710262630134 -0.005052825301069369 0.1170379954463925 7.329711163073843" Properties=species:S:1:pos:R:3:dft_force:R:3 dft_energy=-16.838747119120267 volume=380.66318913769214 dft_virial="-9.981778963176637e-05 -4.086856466782506e-05 -3.1233319214889775e-05 -4.086856466782506e-05 -0.0001627263916765331 2.072847271668376e-05 -3.1233319214889775e-05 2.072847271668376e-05 -0.00017150018310899007" id=2309 pbc="T T T"
Si       0.09386347      -0.02613024       0.12239858       0.01148728      -0.00338304      -0.00391160
Si       3.95215492       3.62009722      -0.04424694      -0.01210990       0.00322923      -0.00574591
Si       3.96277367       0.14502348       3.57562480      -0.01254698      -0.00536072       0.00356789
Si       0.10252581       3.57677120       3.57633122       0.01316960       0.00551453       0.00608965
2
Lattice="5.039405996810438 0.20531989617352595 -0.04382280552185535 -2.3894826609072926 4.408648732281932 -0.20330656306308842 -0.3041513819639952 0.17137143877615513 8.978629260871417" Properties=species:S:1:pos:R:3:dft_force:R:3 dft_energy=-8.423747285286286 volume=204.0303918667666 dft_virial="0.0001071184094097685 2.1574416501979418e-05 -1.2857954505071966e-05 2.1574416501979424e-05 9.461068773252688e-05 1.524091440469196e-05 -1.2857954505071964e-05 1.5240914404691954e-05 0.00018432356041513798" id=2351 pbc="T T T"
Si       0.09386561      -0.02612943       0.12239482      -0.00049812       0.00110417      -0.00135348
Si       0.28781026       2.88224738       4.35188881       0.00049812      -0.00110418       0.00135352
4
Lattice="7.155695184867103 -0.11369726201423408 0.057915589274342 0.25035843810039804 7.435324535774892 0.18404397996241806 -0.18265990675421964 -0.13854527082693835 7.204647992104957" Properties=species:S:1:pos:R:3:dft_force:R:3 dft_energy=-16.840116522306054 volume=383.79070140236206 dft_virial="-8.452303400340003e-05 -3.77242025623391e-05 2.7446464316600194e-05 -3.7724202562339115e-05 -0.00016990733808121947 -3.6168324073569246e-05 2.7446464316600208e-05 -3.6168324073569246e-05 -0.00010772233888466416" id=2279 pbc="T T T"
Si       0.09386570      -0.02612575       0.12239554       0.01187074      -0.00621015      -0.00174205
Si       3.95215746       3.62009522      -0.04424285      -0.01123341       0.00576180      -0.00377380
Si       3.96276867       0.14502446       3.57562747      -0.01193392      -0.00708408       0.00422188
Si       0.10253119       3.57676746       3.57633041       0.01129656       0.00753231       0.00129399
4
Lattice="7.411140236571678 -0.3599542952255281 -0.29041980046296956 -0.16140972861292915 7.079301966929737 -0.021926416634987827 -0.14042860967726287 -0.08673219302411159 7.399918230261417" Properties=species:S:1:pos:R:3:dft_force:R:3 dft_energy=-16.84143816893084 volume=387.5039662221563 dft_virial="-0.00016080651417473254 -9.772396699732776e-05 -2.3733338733259308e-05 -9.772396699732779e-05 -3.8173704218550155e-05 3.650764098194993e-05 -2.3733338733259322e-05 3.6507640981949946e-05 -4.696410548159741e-05" id=2298 pbc="T T T"
Si       0.09386702      -0.02612998       0.12239490       0.00973911       0.00282414      -0.00489855
Si       3.95215271       3.62009382      -0.04424845      -0.01296382      -0.00435168      -0.00468794
Si       3.96277116       0.14502437       3.57562359      -0.00731970       0.00009200       0.00420736
Si       0.10253085       3.57676778       3.57633016       0.01054445       0.00143555       0.00537912
4
Lattice="7.332061302071471 0.05197347775628499 -0.25786359878791676 0.06859320328262121 7.262364876677294 0.11603109267540816 0.012125163117003807 0.09022516279286985 7.397059206915686" Properties=species:S:1:pos:R:3:dft_force:R:3 dft_energy=-16.84206715873206 volume=393.79743597037503 dft_virial="-2.8964261949116294e-05 2.069472567725238e-06 -1.8506699807120647e-06 2.069472567725237e-06 1.4222815290424582e-05 4.502509431593062e-06 -1.8506699807120647e-06 4.502509431593063e-06 -5.061830930202264e-05" id=2289 pbc="T T T"
Si       0.09386290      -0.02612601       0.12239357       0.00594369      -0.00221302      -0.00332223
Si       3.95215757       3.62009369      -0.04424767      -0.00739829       0.00305993      -0.00692389
Si       3.96277073       0.14502560       3.57562750      -0.00461004      -0.00196600       0.00517632
Si       0.10253172       3.57676841       3.57633311       0.00606467       0.00111903       0.00506982
2
Lattice="7.072899064593451 0.0 0.0 2.932008348115363 5.769715583159651 0.0 2.6115202460094555 1.7045556411259402 5.662069224196468" Properties=species:S:1:pos:R:3:dft_force:R:3 dft_energy=-8.436186871275345 volume=231.06120845877723 dft_virial="-0.0004169067075570254 0.009566124012133899 0.008597805127978978 0.009566124012133899 -0.0010916816665438893 0.005851012034544096 0.008597805127978978 0.005851012034544096 -0.0005478550357693543" id=289 pbc="T T T"
Si       0.00000000       0.00000000       0.00000000      -0.01359510       0.02784198      -0.00969699
Si       3.45169949       1.99283964       1.40914747       0.01359511      -0.02784197       0.00969699
2
Lattice="4.889376576865231 0.04203306480648353 0.025719720576732875 -2.4309062701413233 4.451684674742755 0.021336066193654735 -0.2511740438957865 0.05004890508192112 8.764065221338708" Properties=species:S:1:pos:R:3:dft_force:R:3 dft_energy=-8.423723794456539 volume=191.67399880872597 dft_virial="-0.00016611906837429567 -1.875895182113019e-05 -3.974812843586656e-06 -1.8758951821130182e-05 3.7874071312794866e-05 4.099349817789481e-05 -3.974812843586656e-06 4.0993498177894816e-05 -1.7023028534773556e-05" id=2353 pbc="T T T"
Si       0.09386338      -0.02612868       0.12239329      -0.00133102       0.00094019      -0.00574113
Si       0.28780827       2.88224698       4.35189045       0.00133101      -0.00094019       0.00574125
4
Lattice="7.387084854484687 0.08780495275053914 0.06452872364199237 -0.26822385219082634 7.323522215529387 0.016084214937139782 -0.12751805748560335 0.1269128537969307 7.619215145565033" Properties=species:S:1:pos:R:3:dft_force:R:3 dft_energy=-16.841003369632933 volume=412.41782698278666 dft_virial="9.719529497644342e-05 -1.8527475542854278e-05 3.6165895844313257e-09 -1.852747554285428e-05 9.60586234271942e-05 1.2887233642420725e-05 3.6165895844315287e-09 1.2887233642420724e-05 5.4964400356785516e-05" id=2285 pbc="T T T"
Si       0.09386466      -0.02612626       0.12239720       0.00301819      -0.00236584      -0.00490891
Si       3.95215502       3.62009673      -0.04424951      -0.00343219       0.00273046      -0.00629587
Si       3.96277392       0.14502457       3.57562783      -0.00519564      -0.00255036       0.00593534
Si       0.10253059       3.57677160       3.57633320       0.00560969       0.00218571       0.00526948
2
Lattice="6.919364486145982 0.0 0.0 3.4817221188645013 5.973350580623199 0.0 3.632115972492843 1.8757648280170351 6.010251262658766" Properties=species:S:1:pos:R:3:dft_force:R:3 dft_energy=-8.451353824442718 volume=248.4144422593051 dft_virial="-0.0005510101987492403 0.010350859882541924 0.010743464837229504 0.010350859882541924 -0.0006972017467684211 0.005497847478571656 0.010743464837229504 0.005497847478571656 -1.5647145218595606e-05" id=253 pbc="T T T"
Si       0.00000000       0.00000000       0.00000000       0.00706372       0.02458892      -0.01328151
Si       3.54723010       2.04799738       1.44815201      -0.00706372      -0.02458890       0.01328151
2
Lattice="5.079805034334219 -0.032888132068843286 -0.006857702722699443 -2.5984858600648493 4.40751478322359 -0.07918714021810201 -0.21213863274353562 0.033625956736942166 8.77481218829576" Properties=species:S:1:pos:R:3:dft_force:R:3 dft_energy=-8.424728232892377 volume=195.71931228601892 dft_virial="3.219112246842654e-05 -2.6580649532370146e-05 -3.1272534275857986e-08 -2.6580649532370133e-05 2.8089336867035702e-05 3.35503905068436e-05 -3.1272534275857636e-08 3.355039050684361e-05 2.998414542986313e-05" id=2357 pbc="T T T"
Si       0.09386154      -0.02612567       0.12239845      -0.00192850       0.00082157      -0.00255031
Si       0.28781145       2.88224466       4.35189155       0.00192850      -0.00082158       0.00255033
2
Lattice="5.068793430130673 0.05605454919228805 0.12925700236274523 -2.5265683450700926 4.2785143111822626 0.022382502035166257 -0.10147043163172542 0.08370951939598892 9.006848446604145" Properties=species:S:1:pos:R:3:dft_force:R:3 dft_energy=-8.42310490741909 volume=196.62542351963427 dft_virial="2.7482166119915003e-05 2.4483286087279652e-05 3.126437464560022e-05 2.4483286087279652e-05 -5.4772826207646986e-05 1.870026713935063e-05 3.126437464560023e-05 1.8700267139350636e-05 -1.2340976835933404e-05" id=2363 pbc="T T T"
Si       0.09386362      -0.02612871       0.12239633      -0.00064673       0.00123425      -0.00879667
Si       0.28780986       2.88224630       4.35189224       0.00064674      -0.00123425       0.00879671
2
Lattice="4.992602488477688 0.03817934632053419 -0.10984656709008415 -2.4458673830480757 4.4708064732471415 0.05100041998019269 0.068331740776018 -0.12499349676667079 8.717359128387681" Properties=species:S:1:pos:R:3:dft_force:R:3 dft_energy=-8.424262279388234 volume=195.42579674417314 dft_virial="-2.5997177923244472e-05 -3.0095418470966615e-05 1.6632045597759647e-05 -3.0095418470966608e-05 4.6158465292053985e-05 1.3399311556172573e-05 1.663204559775965e-05 1.3399311556172574e-05 5.3423716886504234e-05" id=2342 pbc="T T T"
Si       0.09386583      -0.02612514       0.12239480      -0.00058206       0.00016136      -0.00322444
Si       0.28780773       2.88224500       4.35189141       0.00058205      -0.00016136       0.00322448
2
Lattice="6.998304015549973 0.0 0.0 4.067503202428246 6.168855976298607 0.0 3.4694937011120475 2.1952457060985173 5.721002223119047" Properties=species:S:1:pos:R:3:dft_force:R:3 dft_energy=-8.452568381919246 volume=246.98441653260144 dft_virial="-0.0004682909470382831 0.011793829184278765 0.010676179218328254 0.011793829184278758 -0.00029081518358103675 0.006756720284591298 0.010676179218328254 0.006756720284591303 -0.0004040353294475008" id=285 pbc="T T T"
Si       0.00000000       0.00000000       0.00000000       0.00549306      -0.01847052      -0.01302643
Si       3.47275824       2.00499511       1.41774444      -0.00549305       0.01847051       0.01302641
2
Lattice="7.167593240698449 0.0 0.0 3.4526902564118753 6.34363107638687 0.0 3.1724363132253752 1.9844656541577583 6.176628419849193" Properties=species:S:1:pos:R:3:dft_force:R:3 dft_energy=-8.45709294288201 volume=280.84244452925793 dft_virial="-0.00010321740750393919 0.00806537106363676 0.007528952910135101 0.00806537106363676 1.6951040318405506e-05 0.004690981792745956 0.007528952910135101 0.004690981792745956 0.000241601214494011" id=227 pbc="T T T"
Si       0.00000000       0.00000000       0.00000000       0.01653837       0.00826832      -0.00546375
Si       3.64867474       2.10656279       1.48956806      -0.01653836      -0.00826832       0.00546375
2
Lattice="6.716691359279868 0.0 0.0 3.524743623817731 5.855883314990337 0.0 3.4254687515866413 2.440738137222526 5.417848578754332" Properties=species:S:1:pos:R:3:dft_force:R:3 dft_energy=-8.4261617030053 volume=213.0956918295692 dft_virial="-0.001188241128557884 0.013192734990594826 0.01381173154606862 0.01319273499059483 -0.0011701339088432622 0.00990547734580265 0.01381173154606862 0.009905477345802648 -0.0014624122130194794" id=327 pbc="T T T"
Si       0.00000000       0.00000000       0.00000000       0.00079551      -0.00329880       0.01526163
Si       3.39732258       1.96144458       1.38695298      -0.00079551       0.00329880      -0.01526163
2
Lattice="6.666891406717604 0.0 0.0 3.222608541834189 5.9563335968709445 0.0 2.9777302717006835 2.4247321569469458 5.685628439792178" Properties=species:S:1:pos:R:3:dft_force:R:3 dft_energy=-8.437154428391723 volume=225.77760890252043 dft_virial="-0.001195989417405519 0.010864193254085067 0.010477857931211627 0.010864193254085063 -0.0008416904268313036 0.008553199538316125 0.010477857931211624 0.008553199538316125 -0.0005968701182942512" id=321 pbc="T T T"
Si       0.00000000       0.00000000       0.00000000       0.02893726      -0.00112250      -0.02018621
Si       3.39732587       1.96144590       1.38695221      -0.02893726       0.00112250       0.02018622
2
Lattice="6.76813726329668 0.0 0.0 2.8622037547978114 5.874243894017201 0.0 2.9763451024513325 1.462481724561379 5.565160289073409" Properties=species:S:1:pos:R:3:dft_force:R:3 dft_energy=-8.433827250830419 volume=221.25791196801035 dft_virial="-0.0010021657291440962 0.009886875903287663 0.010873188711311467 0.009886875903287658 -0.0009813253976798976 0.0052482646287510685 0.010873188711311462 0.005248264628751068 -0.0008514290022775271" id=312 pbc="T T T"
Si       0.00000000       0.00000000       0.00000000       0.00944156       0.00430464      -0.00304397
Si       3.41418382       1.97117922       1.39383334      -0.00944156      -0.00430463       0.00304398
4
Lattice="7.412827043905041 0.032921674707555394 0.20584901948842116 0.20807014688352257 7.3499386970255305 -0.03451904130344031 -0.14650506182551953 0.2754115199921467 7.383283462515128" Properties=species:S:1:pos:R:3:dft_force:R:3 dft_energy=-16.84251979987599 volume=402.523038488258 dft_virial="3.499250114604785e-05 2.519160105140394e-06 6.221622806183701e-05 2.519160105140395e-06 1.8527655444198148e-05 6.384213427133048e-06 6.221622806183701e-05 6.384213427133047e-06 4.7312110309837826e-05" id=2293 pbc="T T T"
Si       0.09386517      -0.02612597       0.12239263       0.00411585      -0.00365173      -0.00260430
Si       3.95215487       3.62009452      -0.04424624      -0.00456118       0.00585797      -0.00506909
Si       3.96276731       0.14502643       3.57562393      -0.00253667      -0.00333320       0.00345309
Si       0.10252607       3.57677291       3.57633147       0.00298208       0.00112701       0.00422032
2
Lattice="6.993679855723014 0.0 0.0 3.617103988158816 6.236494943477338 0.0 3.724294923125963 2.431083526451813 5.874043583047991" Properties=species:S:1:pos:R:3:dft_force:R:3 dft_energy=-8.45664399394853 volume=256.20257307833367 dft_virial="-0.00042041623727322495 0.009857961440544115 0.010758497828405785 0.009857961440544112 -0.00017277702559571252 0.00702720407931824 0.010758497828405782 0.00702720407931824 -0.0001480179398160627" id=258 pbc="T T T"
Si       0.00000000       0.00000000       0.00000000       0.01441153      -0.00840745      -0.01227463
Si       3.54723235       2.04799520       1.44815146      -0.01441153       0.00840744       0.01227461
2
Lattice="6.834355156429691 0.0 0.0 3.1597127872282695 6.00296069926996 0.0 3.409710325433387 1.9430504164104603 5.627063937463901" Properties=species:S:1:pos:R:3:dft_force:R:3 dft_energy=-8.44545653005985 volume=230.85798127764008 dft_virial="-0.0008037112055747742 0.010223890182406353 0.011827779071926699 0.010223890182406353 -0.0006974687617301944 0.006652658048010337 0.011827779071926703 0.006652658048010339 -0.0007605991347113852" id=284 pbc="T T T"
Si       0.00000000       0.00000000       0.00000000       0.00910153      -0.00006385       0.00741582
Si       3.47275745       2.00499492       1.41774439      -0.00910152       0.00006385      -0.00741582
4
Lattice="7.427872533083258 0.27967203982094424 -0.020501903287722428 -0.11496506037398427 7.497986077724925 0.036673234599207453 0.30615449165609854 0.13631388221898022 7.1437434419165555" Properties=species:S:1:pos:R:3:dft_force:R:3 dft_energy=-16.842278071711767 volume=398.10733451350865 dft_virial="5.605585645083856e-06 -1.5641162236722895e-07 4.8734996247956504e-05 -1.5641162236722909e-07 -1.477929676363482e-05 2.2853876038735937e-05 4.873499624795653e-05 2.2853876038735937e-05 6.0013397250051345e-05" id=2284 pbc="T T T"
Si       0.09386680      -0.02613060       0.12239510       0.00513875      -0.00626550       0.00047860
Si       3.95215124       3.62009786      -0.04424463      -0.00427790       0.00553797      -0.00099219
Si       3.96277394       0.14502269       3.57562185      -0.00597424      -0.00457221       0.00205421
Si       0.10253079       3.57677034       3.57633534       0.00511344       0.00529978      -0.00154061
2
Lattice="5.086108083542079 0.26549395383119195 -0.06337264589073006 -2.4839825731666787 4.250488463329343 0.15066716471774655 0.1625767289811918 0.2675384485254246 8.88717641860442" Properties=species:S:1:pos:R:3:dft_force:R:3 dft_energy=-8.423000975141944 volume=197.8752528033214 dft_virial="8.080115798263144e-05 3.538361210138236e-05 8.38873340461146e-06 3.5383612101382374e-05 -6.244003478464351e-05 1.866046917349963e-05 8.38873340461146e-06 1.866046917349963e-05 4.056454636323503e-05" id=2330 pbc="T T T"
Si       0.09386330      -0.02612758       0.12239433       0.00135101       0.00202473      -0.00749468
Si       0.28780655       2.88224668       4.35189464      -0.00135101      -0.00202473       0.00749475
2
Lattice="6.770915160699879 0.0 0.0 3.364715946406047 5.895992751985519 0.0 3.8763233898521063 1.7197263624544359 5.4939024963660215" Properties=species:S:1:pos:R:3:dft_force:R:3 dft_energy=-8.43365777264248 volume=219.3235468460262 dft_virial="-0.0010273326830919599 0.011951897804155356 0.014887077159099288 0.011951897804155356 -0.0009981592120758625 0.006455643147145502 0.014887077159099284 0.006455643147145499 -0.0011591570458258202" id=316 pbc="T T T"
Si       0.00000000       0.00000000       0.00000000      -0.00030316       0.00050618       0.00689530
Si       3.41418497       1.97117922       1.39383602       0.00030316      -0.00050618      -0.00689530
2
Lattice="7.2835109309091175 0.0 0.0 3.5086828414845366 6.283278893144698 0.0 3.4611543397240743 2.0977490661507 6.128485757098227" Properties=species:S:1:pos:R:3:dft_force:R:3 dft_energy=-8.460130129588967 volume=280.46604765342744 dft_virial="-5.975144992017181e-06 0.008267881118854738 0.008356639917765769 0.008267881118854738 -4.537001678523962e-05 0.005095146344775718 0.008356639917765769 0.005095146344775718 0.00020436266449780054" id=230 pbc="T T T"
Si       0.00000000       0.00000000       0.00000000       0.00550109       0.00759128      -0.00615722
Si       3.64867753       2.10656477       1.48956524      -0.00550109      -0.00759128       0.00615721
2
Lattice="7.30842319041006 0.0 0.0 3.596955728218056 6.1244587507266495 0.0 3.257761227204478 2.0170048482976894 6.154206819380509" Properties=species:S:1:pos:R:3:dft_force:R:3 dft_energy=-8.457229124384698 volume=275.4631364386248 dft_virial="2.243987863492654e-05 0.00893040769255153 0.007952159782246409 0.00893040769255153 -0.00028039747009590284 0.0050443519463067455 0.007952159782246409 0.0050443519463067455 0.00021012273000065243" id=225 pbc="T T T"
Si       0.00000000       0.00000000       0.00000000      -0.00217991       0.02260785      -0.00615237
Si       3.64867697       2.10656570       1.48956422       0.00217991      -0.02260785       0.00615237
2
Lattice="5.004070178081412 -0.23283359045214982 -0.029518863772203013 -2.4906168535696636 4.52886014480941 0.1195144437381921 0.1266649595239023 -0.017001828148735562 8.846738150366294" Properties=species:S:1:pos:R:3:dft_force:R:3 dft_energy=-8.423463169153747 volume=195.38338329063822 dft_virial="-2.3476183387191687e-05 -3.2252261828212115e-05 2.0756873357324533e-06 -3.22522618282121e-05 -2.3239776102474346e-05 1.7488265331173613e-05 2.0756873357324495e-06 1.7488265331173613e-05 2.5897932310755398e-05" id=2332 pbc="T T T"
Si       0.09386667      -0.02612845       0.12239973      -0.00011500       0.00062102      -0.00752453
Si       0.28780582       2.88224812       4.35188869       0.00011500      -0.00062102       0.00752464
2
Lattice="5.148870725839781 0.004447375948000519 0.03330304033676612 -2.583796168521377 4.391393813113327 -0.042065794862962046 -0.1215910448792821 0.4444249207154713 8.769273967942318" Properties=species:S:1:pos:R:3:dft_force:R:3 dft_energy=-8.424496782670818 volume=198.45618031774572 dft_virial="9.781177039562743e-05 8.042114295060704e-06 -2.9157812845573635e-05 8.042114295060702e-06 5.8404440144745844e-05 1.634519664966322e-05 -2.9157812845573635e-05 1.634519664966322e-05 3.183020959630446e-05" id=2348 pbc="T T T"
Si       0.09386364      -0.02612730       0.12239958       0.00042037       0.00254564      -0.00313843
Si       0.28780835       2.88224475       4.35189291      -0.00042038      -0.00254565       0.00313850
4
Lattice="7.263043401739602 -0.1845944760797828 0.16953609896939612 -0.1053549715507674 7.441140829327571 -0.03886321930777501 -0.040861831451701726 0.03776330421693659 7.02507506635888" Properties=species:S:1:pos:R:3:dft_force:R:3 dft_energy=-16.84020256025084 volume=379.59710907640357 dft_virial="-0.00016502350444995312 -2.029523414651895e-05 5.110613745691472e-05 -2.0295234146518958e-05 -0.00017556850446199415 -4.401539971718909e-05 5.110613745691472e-05 -4.4015399717189074e-05 -0.00011108334728645511" id=2306 pbc="T T T"
Si       0.09386292      -0.02612630       0.12239913       0.00986057      -0.00534695      -0.00035462
Si       3.95215710       3.62009348      -0.04424924      -0.01037007       0.00521752       0.00219274
Si       3.96276986       0.14502357       3.57562244      -0.01312260      -0.00784963       0.00062390
Si       0.10253081       3.57677243       3.57633634       0.01363215       0.00797905      -0.00246202
2
Lattice="4.937572492098388 0.14207374854957833 -0.17635793469025013 -2.61273473519523 4.342918690845255 0.09209381847120605 0.11784545652218385 -0.3659718635077414 8.760827062240592" Properties=species:S:1:pos:R:3:dft_force:R:3 dft_energy=-8.424180013683788 volume=191.20419573159757 dft_virial="-0.00014114697051974048 -1.2597451375954366e-05 2.6193244818415694e-05 -1.2597451375954352e-05 1.7573879689199125e-05 -3.9537335517331025e-05 2.6193244818415694e-05 -3.953733551733104e-05 -2.2243644802088104e-05" id=2350 pbc="T T T"
Si       0.09386655      -0.02612875       0.12239705      -0.00215742      -0.00008061      -0.00396216
Si       0.28781264       2.88224434       4.35189572       0.00215742       0.00008062       0.00396224
4
Lattice="7.413475049890437 0.014438698119599398 0.4488287573735604 0.13061121789817454 7.41225234039602 0.004867065223018656 -0.17084420518738458 -0.08045956840685753 7.145171092209187" Properties=species:S:1:pos:R:3:dft_force:R:3 dft_energy=-16.84262327715407 volume=393.18413518882585 dft_virial="-9.749231474086753e-05 -2.3302538844027132e-05 4.457360955375014e-05 -2.330253884402714e-05 -1.9453097958473315e-05 -3.6615736620480375e-06 4.457360955375014e-05 -3.6615736620480367e-06 2.2620079680405727e-05" id=2297 pbc="T T T"
Si       0.09386744      -0.02612463       0.12239250       0.00841126      -0.00584435      -0.00307181
Si       3.95215600       3.62009830      -0.04424255      -0.00622011       0.00542840      -0.00172199
Si       3.96276872       0.14502057       3.57562263      -0.00795319      -0.00460413       0.00246208
Si       0.10252622       3.57677092       3.57633426       0.00576208       0.00502001       0.00233172
2
Lattice="6.736616631537921 0.0 0.0 3.670583237485725 6.0658054312705145 0.0 3.4366313638048056 1.7931365532177732 5.460116082983837" Properties=species:S:1:pos:R:3:dft_force:R:3 dft_energy=-8.43608682289189 volume=223.11675490539253 dft_virial="-0.0010823748029933035 0.012503684898586163 0.012891730618627284 0.012503684898586167 -0.0006286863163230214 0.006526632742402768 0.012891730618627285 0.006526632742402765 -0.0012607049157198373" id=309 pbc="T T T"
Si       0.00000000       0.00000000       0.00000000       0.00958047      -0.02027947       0.01552650
Si       3.41418008       1.97117959       1.39383113      -0.00958047       0.02027945      -0.01552650
4
Lattice="7.4184675362363475 0.1532449590216098 -0.20526250519112108 0.03165689990960461 7.187355240619334 -0.01781497730016203 -0.1580191820001256 -0.012176998304602291 7.509809338196258" Properties=species:S:1:pos:R:3:dft_force:R:3 dft_energy=-16.84268801168852 volume=400.14608145722553 dft_virial="4.0983608770895155e-05 2.9215847304838848e-05 3.1541308896228277e-06 2.9215847304838848e-05 7.777124729528554e-05 -1.8613446410568846e-05 3.1541308896228277e-06 -1.8613446410568846e-05 -6.2832312655636425e-06" id=2295 pbc="T T T"
Si       0.09386491      -0.02612970       0.12239665       0.00388963      -0.00247459      -0.00480799
Si       3.95215640       3.62009824      -0.04424486      -0.00623531       0.00181319      -0.00618730
Si       3.96277231       0.14502403       3.57562665      -0.00258943      -0.00037682       0.00536013
Si       0.10252533       3.57677015       3.57633415       0.00493515       0.00103823       0.00563518
2
Lattice="6.705404025137478 0.0 0.0 3.306274276275871 5.85912041584182 0.0 4.242119565522041 2.0690327879608867 5.517520293471594" Properties=species:S:1:pos:R:3:dft_force:R:3 dft_energy=-8.429230571196364 volume=216.77106616441938 dft_virial="-0.0011351688859249562 0.012041506382824132 0.016501656257672862 0.012041506382824132 -0.001119840029650276 0.007877828028830748 0.016501656257672862 0.007877828028830752 -0.0010090552259702796" id=324 pbc="T T T"
Si       0.00000000       0.00000000       0.00000000       0.00932811       0.00238208      -0.00681368
Si       3.39732848       1.96144847       1.38695563      -0.00932811      -0.00238209       0.00681367
2
Lattice="7.099393024860705 0.0 0.0 3.9717734564069542 6.2120418874246806 0.0 3.8713080567173503 2.0730408970712175 5.895182059478054" Properties=species:S:1:pos:R:3:dft_force:R:3 dft_energy=-8.45803582268994 volume=259.98770889292155 dft_virial="-0.00023114876785286273 0.010726897874137255 0.010941964728153699 0.010726897874137251 -0.00020051415374790714 0.005798240683280127 0.010941964728153697 0.005798240683280127 -0.00012248339188740748" id=232 pbc="T T T"
Si       0.00000000       0.00000000       0.00000000       0.00179083      -0.00082823      -0.00510875
Si       3.61064568       2.08460598       1.47403721      -0.00179082       0.00082822       0.00510873
2
Lattice="4.95330238338716 0.038338952589020085 0.02217655968210454 -2.5450800454951428 4.255079288387464 0.0295951709131154 -0.04164576543724148 -0.08996143261491708 8.943502426954513" Properties=species:S:1:pos:R:3:dft_force:R:3 dft_energy=-8.423035896331054 volume=189.39428376598164 dft_virial="-0.00014549601700614137 -1.7764061995450943e-05 1.8811623247190575e-05 -1.7764061995450946e-05 -0.00017318289289833014 1.1906125755633713e-05 1.8811623247190568e-05 1.1906125755633707e-05 -3.0141229664462458e-05" id=2331 pbc="T T T"
Si       0.09386221      -0.02612580       0.12239896      -0.00188984      -0.00000063      -0.00796624
Si       0.28780733       2.88224560       4.35189404       0.00188985       0.00000063       0.00796637
2
Lattice="4.976672456295057 -0.15624998260772846 -0.10842335765384475 -2.433950127599303 4.5156686470348015 0.19123208240074707 0.1922030614781023 0.050046410643436616 8.704750195382772" Properties=species:S:1:pos:R:3:dft_force:R:3 dft_energy=-8.423684627249795 volume=192.36536522387777 dft_virial="-0.000100491455891044 2.6049535111958644e-05 1.0409319744560584e-05 2.6049535111958648e-05 5.451511239383916e-06 2.8352422924293445e-05 1.0409319744560586e-05 2.8352422924293445e-05 -1.3227559173056923e-05" id=2354 pbc="T T T"
Si       0.09386317      -0.02612609       0.12239932       0.00050955       0.00131471      -0.00677068
Si       0.28780981       2.88224593       4.35189487      -0.00050956      -0.00131472       0.00677081
4
Lattice="7.373688472603647 0.06179791821381817 -0.04628835009391584 0.22600300529933876 7.512090804546519 0.01886587289532767 0.07144882512132696 -0.0268562774571278 7.449743486256488" Properties=species:S:1:pos:R:3:dft_force:R:3 dft_energy=-16.841064011318277 volume=412.57972829929946 dft_virial="7.861261130218731e-05 3.9723237659645585e-06 1.1314190792252491e-05 3.972323765964558e-06 6.710625163101036e-05 -2.6160224181971175e-06 1.1314190792252487e-05 -2.6160224181971175e-06 0.00011171882518501723" id=2296 pbc="T T T"
Si       0.09386753      -0.02612520       0.12239410       0.00580683      -0.00590964      -0.00250668
Si       3.95215320       3.62009225      -0.04424454      -0.00457764       0.00463456      -0.00459854
Si       3.96277384       0.14502667       3.57562526      -0.00356778      -0.00300950       0.00378571
Si       0.10253059       3.57676873       3.57633625       0.00233858       0.00428457       0.00331952
4
Lattice="7.074711822173021 -0.13957674003754283 -0.035435860830063746 -0.11219009204627756 7.69731877351506 0.02833338188244153 -0.04032291935548095 0.07872948634524014 7.165553527011311" Properties=species:S:1:pos:R:3:dft_force:R:3 dft_energy=-16.837503995673185 volume=390.07110567484364 dft_virial="-0.00014593184723880512 -4.4591120740098394e-05 1.4133206905656704e-05 -4.4591120740098414e-05 -9.883523476025195e-05 -3.9818253557427594e-05 1.4133206905656704e-05 -3.9818253557427574e-05 -4.6883704758452136e-05" id=2327 pbc="T T T"
Si       0.09386706      -0.02612386       0.12239484       0.01274702      -0.00792106      -0.00073186
Si       3.95215566       3.62009238      -0.04424510      -0.01267247       0.00762342      -0.00328464
Si       3.96277360       0.14502289       3.57562238      -0.01841324      -0.01296304       0.00256234
Si       0.10253240       3.57676722       3.57632965       0.01833869       0.01326065       0.00145415
2
Lattice="6.8154201006609405 0.0 0.0 3.362363237380888 5.9351214211220205 0.0 3.341306019174183 2.224173633614288 5.525130220575463" Properties=species:S:1:pos:R:3:dft_force:R:3 dft_energy=-8.439276858112136 volume=223.49342819672748 dft_virial="-0.0009172209600525501 0.011543428730155599 0.012316793891596333 0.011543428730155599 -0.0008839514228166899 0.008240812782447962 0.012316793891596333 0.008240812782447964 -0.0010747939534587593" id=304 pbc="T T T"
Si       0.00000000       0.00000000       0.00000000       0.00237916      -0.00313580       0.01018571
Si       3.43223490       1.98160225       1.40120618      -0.00237916       0.00313579      -0.01018571
2
Lattice="6.9445035127818775 0.0 0.0 3.78445624402955 5.904853677783889 0.0 2.5856706823507 2.2702621640677862 5.708528140970393" Properties=species:S:1:pos:R:3:dft_force:R:3 dft_energy=-8.442416178835773 volume=234.08548682649572 dft_virial="-0.0005142713702200116 0.012201457687585215 0.008389295058573403 0.012201457687585215 -0.0008676230953066783 0.007594666405500987 0.008389295058573403 0.007594666405500986 -0.00045846851546306754" id=271 pbc="T T T"
Si       0.00000000       0.00000000       0.00000000       0.00146466       0.01797245      -0.00573941
Si       3.49552090       2.01813919       1.42704070      -0.00146465      -0.01797245       0.00573941
2
Lattice="5.111367939266385 0.10807916293750541 0.03883445767615821 -2.555265537026047 4.274532639340415 -0.14543281232514563 -0.13887389420001076 -0.0809030871283072 8.7871319932036" Properties=species:S:1:pos:R:3:dft_force:R:3 dft_energy=-8.424461486513971 volume=194.38736515894334 dft_virial="1.7292428612880044e-05 5.1122831305069334e-05 -4.6458389154707304e-07 5.112283130506931e-05 -3.434850153752143e-05 -1.9183126275502285e-05 -4.64583891547074e-07 -1.918312627550229e-05 4.029137937676142e-05" id=2375 pbc="T T T"
Si       0.09386627      -0.02612834       0.12239949      -0.00149029       0.00062699      -0.00189557
Si       0.28780661       2.88224698       4.35188744       0.00149029      -0.00062699       0.00189557
2
Lattice="7.039611538908168 0.0 0.0 3.153040164282216 5.928739815999159 0.0 3.301873104131617 2.0165664318367766 5.718936752464831" Properties=species:S:1:pos:R:3:dft_force:R:3 dft_energy=-8.449758420227976 volume=238.6856885318392 dft_virial="-0.0005127155053603196 0.009662038468306175 0.01060161521494631 0.009662038468306175 -0.0007528495249860575 0.00658812871240236 0.01060161521494631 0.006588128712402361 -0.00047625998048099856" id=300 pbc="T T T"
Si       0.00000000       0.00000000       0.00000000      -0.00577435       0.00577118      -0.01134769
Si       3.43223639       1.98160177       1.40120240       0.00577436      -0.00577117       0.01134768
2
Lattice="7.060564822178018 0.0 0.0 3.6070827705199253 6.237944363414926 0.0 3.8388614591575254 2.092951051520275 5.911972276095354" Properties=species:S:1:pos:R:3:dft_force:R:3 dft_energy=-8.458936341211846 volume=260.3834220277899 dft_virial="-0.000290913128951872 0.00961748840416523 0.010828868059759066 0.009617488404165231 -0.00017117985768333823 0.005812486658032099 0.010828868059759071 0.0058124866580321006 -0.00010583109407013872" id=231 pbc="T T T"
Si       0.00000000       0.00000000       0.00000000       0.00744924       0.00096575      -0.00208804
Si       3.61064203       2.08460483       1.47403797      -0.00744925      -0.00096575       0.00208804
2
Lattice="5.076803714611304 0.2577896538046601 -0.05912501399410249 -2.400263283886625 4.202716678227596 0.02852411194020001 -0.048510176687683336 -0.10284758844230768 8.827176291339265" Properties=species:S:1:pos:R:3:dft_force:R:3 dft_energy=-8.423272070868407 volume=193.7896960784047 dft_virial="-4.5512976556433906e-06 6.380453248692993e-05 -7.6939104273697e-06 6.380453248692994e-05 -8.939593455045324e-05 -1.0732807314834485e-05 -7.693910427369698e-06 -1.0732807314834483e-05 3.71917039337052e-05" id=2337 pbc="T T T"
Si       0.09386638      -0.02612756       0.12239605      -0.00105161      -0.00061118      -0.00569099
Si       0.28780659       2.88224812       4.35188877       0.00105162       0.00061119       0.00569111
2
Lattice="6.940157142695238 0.0 0.0 3.2950077291208517 5.929490037270635 0.0 3.273561227332474 2.4252499419050935 5.596183922861391" Properties=species:S:1:pos:R:3:dft_force:R:3 dft_energy=-8.4440276510096 volume=230.29188110247196 dft_virial="-0.0006499301555590133 0.010751213457290073 0.011355276431748735 0.010751213457290073 -0.0008086778228549273 0.008606855636874095 0.011355276431748737 0.008606855636874095 -0.0008110513472733466" id=293 pbc="T T T"
Si       0.00000000       0.00000000       0.00000000      -0.00192894       0.00233480       0.00261645
Si       3.45169995       1.99283640       1.40914710       0.00192895      -0.00233480      -0.00261644
4
Lattice="7.532265293885889 -0.060031761280481676 0.06321914343762672 -0.15285074325475162 7.372218095603337 -0.1980738925267384 0.07901676251070576 0.1796031802613312 7.273068285447175" Properties=species:S:1:pos:R:3:dft_force:R:3 dft_energy=-16.843083617104124 volume=404.03346175843603 dft_virial="2.1678758264380835e-05 1.2203822504365438e-05 2.3389216382853786e-05 1.2203822504365438e-05 6.260199325024963e-05 -1.3069278663820361e-05 2.338921638285378e-05 -1.3069278663820358e-05 0.00011827857435938925" id=2282 pbc="T T T"
Si       0.09386285      -0.02612395       0.12239807       0.00203094      -0.00425824      -0.00190849
Si       3.95215128       3.62009813      -0.04424894      -0.00102765       0.00467022      -0.00301141
Si       3.96276948       0.14502083       3.57562792      -0.00377872      -0.00316951       0.00181674
Si       0.10252836       3.57676841       3.57633095       0.00277543       0.00275757       0.00310314
2
Lattice="7.169108801050398 0.0 0.0 2.9701430213103106 6.036688531142281 0.0 3.7149880219621814 1.8948661796847523 5.8362641783644715" Properties=species:S:1:pos:R:3:dft_force:R:3 dft_energy=-8.454199058599274 volume=252.57995528480714 dft_virial="-0.00019187765109297038 0.008233726695661138 0.010961483567057987 0.008233726695661138 -0.0004731720295243327 0.005545840996989639 0.010961483567057983 0.005545840996989637 -0.0002077902358410578" id=255 pbc="T T T"
Si       0.00000000       0.00000000       0.00000000      -0.00413070       0.01056926      -0.00200087
Si       3.54723325       2.04799450       1.44815223       0.00413070      -0.01056925       0.00200086
2
Lattice="7.014755971190965 0.0 0.0 3.1818471493260114 6.000222486115377 0.0 3.8395927831677557 2.144461206225324 5.718075037352002" Properties=species:S:1:pos:R:3:dft_force:R:3 dft_energy=-8.450442092963975 volume=240.6743301904482 dft_virial="-0.00039606829514526746 0.009722595159458076 0.01246048782352218 0.009722595159458076 -0.000635697485995307 0.006955224470334595 0.01246048782352218 0.006955224470334596 -0.0005384620025735941" id=244 pbc="T T T"
Si       0.00000000       0.00000000       0.00000000      -0.00237101       0.01166839       0.01270459
Si       3.57710576       2.06524251       1.46035062       0.00237101      -0.01166838      -0.01270458
2
Lattice="6.797531953165233 0.0 0.0 3.7991450851962654 5.904827221618143 0.0 3.5377260422939103 1.9482603913360534 5.540316059712954" Properties=species:S:1:pos:R:3:dft_force:R:3 dft_energy=-8.437865879821361 volume=222.3786005957716 dft_virial="-0.0009677527600855506 0.01331634855941002 0.01312232602876401 0.01331634855941002 -0.0009531933579775293 0.007187921449922666 0.01312232602876401 0.007187921449922667 -0.0010196980729615087" id=315 pbc="T T T"
Si       0.00000000       0.00000000       0.00000000       0.00034452      -0.00397235       0.00188694
Si       3.41418499       1.97118031       1.39383272      -0.00034452       0.00397234      -0.00188695
2
Lattice="7.207738582489998 0.0 0.0 3.2345629492985717 6.378218733645896 0.0 3.509465188100132 2.0583407175477535 5.75472249608687" Properties=species:S:1:pos:R:3:dft_force:R:3 dft_energy=-8.45815510746054 volume=264.559171319241 dft_virial="-0.00014993341951484933 0.008019801277415566 0.009790194003906938 0.008019801277415566 4.934164515398074e-05 0.005682894802129057 0.00979019400390694 0.005682894802129058 -0.0003177008769906483" id=252 pbc="T T T"
Si       0.00000000       0.00000000       0.00000000       0.00318502      -0.01480251       0.00443970
Si       3.54723153       2.04799307       1.44815290      -0.00318501       0.01480252      -0.00443970
2
Lattice="7.659076990643369 0.0 0.0 3.6579598669732247 6.104850952457533 0.0 3.509682506604464 1.8198591703461062 5.730089916052373" Properties=species:S:1:pos:R:3:dft_force:R:3 dft_energy=-8.453059679996773 volume=267.9248136850327 dft_virial="0.00026006172945477096 0.009411222077427592 0.009609715296370893 0.009411222077427594 -0.00027245928776437896 0.0051071525854015564 0.009609715296370894 0.005107152585401556 -0.00040193357686721273" id=226 pbc="T T T"
Si       0.00000000       0.00000000       0.00000000      -0.02587238       0.01306999       0.01894937
Si       3.64867487       2.10656256       1.48956553       0.02587239      -0.01306997      -0.01894936
4
Lattice="7.253490439337132 -0.12894884472360252 -0.1437572110677012 -0.009634995413539444 7.305474858607679 -0.10659381930628832 0.09442213113209623 -0.13786931579215972 7.17836825119119" Properties=species:S:1:pos:R:3:dft_force:R:3 dft_energy=-16.840534783295617 volume=380.3678665921157 dft_virial="-0.00010295241535995574 -3.2586359552697094e-05 6.723053851737909e-06 -3.2586359552697094e-05 -0.00018116810356384535 1.3868102076369792e-05 6.723053851737908e-06 1.3868102076369786e-05 -0.00011156340884819734" id=2322 pbc="T T T"
Si       0.09386525      -0.02612518       0.12239374       0.00777908      -0.00406789      -0.00205529
Si       3.95215356       3.62009790      -0.04424457      -0.00866544       0.00343784      -0.00112573
Si       3.96276748       0.14502592       3.57562269      -0.00936244      -0.00505862       0.00112307
Si       0.10252707       3.57677332       3.57633026       0.01024878       0.00568870       0.00205795
2
Lattice="5.318382409547646 -0.029316341823426868 -0.21013803638717804 -2.7027292569145893 4.385975382498926 0.12365900997198256 0.13335358845023146 0.0335775608508905 8.634934244811213" Properties=species:S:1:pos:R:3:dft_force:R:3 dft_energy=-8.423831237427875 volume=200.8562468073193 dft_virial="7.89110934778931e-05 -3.913151969611003e-05 -1.4684744160166858e-05 -3.913151969611e-05 0.00014137608917043102 7.230312661105878e-07 -1.4684744160166853e-05 7.230312661105864e-07 7.939668590346522e-05" id=2355 pbc="T T T"
Si       0.09386500      -0.02612902       0.12239790      -0.00044161       0.00075061      -0.00275595
Si       0.28781015       2.88224538       4.35189130       0.00044161      -0.00075061       0.00275595
2
Lattice="7.173271867702949 0.0 0.0 3.318984574190104 6.372211294295711 0.0 3.4974276326862657 1.7071086611203097 5.831726945939246" Properties=species:S:1:pos:R:3:dft_force:R:3 dft_energy=-8.458522755199303 volume=266.5659294075031 dft_virial="-0.00017054457178992534 0.008200720854664799 0.009531428748446922 0.008200720854664799 5.5736211915513345e-05 0.004501898866390762 0.009531428748446922 0.004501898866390761 -0.0001883974903838843" id=242 pbc="T T T"
Si       0.00000000       0.00000000       0.00000000       0.00436005      -0.00448843       0.00348225
Si       3.57710221       2.06524417       1.46034607      -0.00436005       0.00448843      -0.00348225
2
Lattice="6.962454021239698 0.0 0.0 3.1123335738316524 5.989464275287883 0.0 3.228619760636624 1.902901295166661 5.886209639838331" Properties=species:S:1:pos:R:3:dft_force:R:3 dft_energy=-8.451579920500379 volume=245.46300390203027 dft_virial="-0.0004982018907212281 0.009193247021254838 0.00974075245069651 0.009193247021254842 -0.0006239469304880542 0.005745274985509176 0.00974075245069651 0.005745274985509173 -0.0001707868525011278" id=265 pbc="T T T"
Si       0.00000000       0.00000000       0.00000000       0.00965730       0.01654561      -0.00766656
Si       3.52023338       2.03240532       1.43712986      -0.00965729      -0.01654560       0.00766656
2
Lattice="5.108758699919807 0.22349930715682206 0.022496565904048665 -2.4419478642984664 4.170293796730635 0.13121851918284552 -0.1095091942850547 0.05020973967238802 8.875775889867167" Properties=species:S:1:pos:R:3:dft_force:R:3 dft_energy=-8.42222337339799 volume=193.91343452494132 dft_virial="-1.725972759586465e-05 1.5952722763436783e-05 1.2892169709360236e-05 1.5952722763436786e-05 -0.00013052940481463008 1.096701334949004e-05 1.2892169709360236e-05 1.096701334949004e-05 -5.982426293409077e-06" id=2349 pbc="T T T"
Si       0.09386300      -0.02612779       0.12239165      -0.00016186       0.00090932      -0.00920217
Si       0.28780614       2.88224713       4.35189085       0.00016187      -0.00090932       0.00920223
2
Lattice="7.002663613719485 0.0 0.0 3.416322477143452 6.004434685647168 0.0 3.9172019453800107 2.0702951250121364 5.467567273093236" Properties=species:S:1:pos:R:3:dft_force:R:3 dft_energy=-8.442074847658535 volume=229.89499957238482 dft_virial="-0.0005386446869378963 0.01110396820080534 0.014087743493482812 0.011103968200805335 -0.0006421488071429775 0.007431846704066152 0.014087743493482805 0.0074318467040661515 -0.001175282768727861" id=281 pbc="T T T"
Si       0.00000000       0.00000000       0.00000000      -0.01374183      -0.00895360       0.02227607
Si       3.47275690       2.00499794       1.41774565       0.01374182       0.00895359      -0.02227610
4
Lattice="7.438473594286229 -0.17577416049583075 -0.023556267622955058 -0.02742236381502069 7.50945773575351 0.09095051526854622 0.16186959346535684 0.09259257388727853 7.279381236819929" Properties=species:S:1:pos:R:3:dft_force:R:3 dft_energy=-16.84226053219522 volume=406.54662729322706 dft_virial="6.226268237599796e-05 8.124760885768773e-06 1.602609110740387e-05 8.124760885768771e-06 2.7000296826047434e-05 -6.8360759309518e-07 1.602609110740387e-05 -6.8360759309518e-07 0.00010076982049202035" id=2301 pbc="T T T"
Si       0.09386769      -0.02612652       0.12239480       0.00391948      -0.00540500      -0.00076931
Si       3.95215103       3.62009654      -0.04424586      -0.00256692       0.00601777      -0.00423816
Si       3.96277258       0.14502480       3.57562134      -0.00616270      -0.00501085       0.00341943
Si       0.10252702       3.57676610       3.57633577       0.00481011       0.00439809       0.00158798
4
Lattice="7.23030221477421 -0.1059791102952088 0.005322356938224743 0.14611190430529114 7.19726250777291 -0.1167027202373614 0.01526789104582394 -0.1765874986198697 7.346866248011286" Properties=species:S:1:pos:R:3:dft_force:R:3 dft_energy=-16.84089130959229 volume=382.2832676955504 dft_virial="-8.437344917968203e-05 -3.451555403596512e-05 9.200478824211539e-08 -3.4515554035965134e-05 -0.00011690765206756135 1.4865621288360152e-05 9.20047882421153e-08 1.4865621288360149e-05 -0.0001592653688072971" id=2323 pbc="T T T"
Si       0.09386238      -0.02612518       0.12239563       0.00853014      -0.00360232      -0.00535213
Si       3.95215137       3.62009690      -0.04424518      -0.00782043       0.00139262      -0.00309428
Si       3.96277237       0.14502261       3.57562507      -0.00934271      -0.00298146       0.00467753
Si       0.10252533       3.57676812       3.57633277       0.00863302       0.00519116       0.00376888
2
Lattice="5.10305236953032 -0.02540872834840321 0.06819254354967806 -2.55422129326684 4.501214150804801 0.012288170892514026 0.1252966655288445 -0.2916212127439616 8.812456099616142" Properties=species:S:1:pos:R:3:dft_force:R:3 dft_energy=-8.423596402681488 volume=201.88017131619543 dft_virial="8.658593968808349e-05 1.1216629955014201e-05 1.197337394048873e-05 1.1216629955014194e-05 0.00014205661704112175 2.274208468170008e-06 1.1973373940488727e-05 2.2742084681700063e-06 7.149283432701663e-05" id=2339 pbc="T T T"
Si       0.09386436      -0.02612835       0.12239890      -0.00052611      -0.00083305      -0.00534152
Si       0.28780975       2.88224800       4.35188941       0.00052612       0.00083306       0.00534163
2
Lattice="5.104857719383481 -0.07885583343393263 0.1113292273102043 -2.6576854993436134 4.464668586102573 -0.07627879502051921 -0.05771348306531328 -0.17421723403901282 8.94461566461453" Properties=species:S:1:pos:R:3:dft_force:R:3 dft_energy=-8.423667631711044 volume=201.99867759684997 dft_virial="0.00011129385513655382 -2.5366012231360253e-05 4.4214319623660066e-05 -2.5366012231360246e-05 5.5480818927926764e-05 7.212021806671829e-06 4.4214319623660066e-05 7.21202180667183e-06 0.00010045929928590724" id=2361 pbc="T T T"
Si       0.09386334      -0.02612548       0.12239885      -0.00183776       0.00004326      -0.00532666
Si       0.28780563       2.88224793       4.35188928       0.00183777      -0.00004326       0.00532678
2
Lattice="6.908776350669703 0.0 0.0 3.870680667643974 5.939201339825087 0.0 3.261243992452163 1.804448453799783 5.615621645779291" Properties=species:S:1:pos:R:3:dft_force:R:3 dft_energy=-8.444108699540182 volume=230.42363400484956 dft_virial="-0.0007402324210008469 0.012746485013810718 0.01117797225177367 0.012746485013810722 -0.0007778800225548914 0.006187110369748905 0.011177972251773671 0.006187110369748904 -0.0007383213417166962" id=308 pbc="T T T"
Si       0.00000000       0.00000000       0.00000000      -0.00337727      -0.00392173      -0.00728022
Si       3.41417981       1.97117910       1.39383098       0.00337727       0.00392172       0.00728021
4
Lattice="7.395509404726359 -0.23554638679035633 -0.04424704903683383 0.37566859627377236 7.412898607833381 -0.24672324754350045 -0.15455493606846163 -0.1796688104496395 7.248131289431262" Properties=species:S:1:pos:R:3:dft_force:R:3 dft_energy=-16.842540815998635 volume=397.61507042460585 dft_virial="1.7026190465167322e-05 -1.0619269180485757e-05 -1.675965734492854e-05 -1.0619269180485759e-05 -2.1529482955428697e-05 1.8174152072400408e-06 -1.6759657344928544e-05 1.8174152072400402e-06 2.349574450496608e-05" id=2290 pbc="T T T"
Si       0.09386631      -0.02612947       0.12239437       0.00423319      -0.00679353      -0.00292760
Si       3.95215489       3.62009592      -0.04424338      -0.00475552       0.00464518      -0.00030181
Si       3.96277424       0.14502080       3.57562167      -0.00331163      -0.00412168       0.00117679
Si       0.10252743       3.57676930       3.57633024       0.00383399       0.00627001       0.00205267
2
Lattice="7.241543893133429 0.0 0.0 3.8569366895395705 6.030325823280665 0.0 3.6303547477446916 2.1760460886723187 5.90078509743757" Properties=species:S:1:pos:R:3:dft_force:R:3 dft_energy=-8.45703330393134 volume=257.68061223844194 dft_virial="-0.00010784102463950769 0.010731222293868142 0.010261591746304722 0.010731222293868147 -0.0004734389029810286 0.006300396371904109 0.010261591746304727 0.006300396371904107 -0.00012165731910286641" id=249 pbc="T T T"
Si       0.00000000       0.00000000       0.00000000      -0.01123442       0.01151558      -0.00819603
Si       3.57710591       2.06524623       1.46034991       0.01123442      -0.01151559       0.00819601
2
Lattice="6.887031272153634 0.0 0.0 3.354940393163358 5.901952948182588 0.0 3.7937725938239546 1.9022644574626622 5.575476303987742" Properties=species:S:1:pos:R:3:dft_force:R:3 dft_energy=-8.441274100737989 volume=226.6260202510908 dft_virial="-0.0007138951553276566 0.011395158143604697 0.0137223614814352 0.011395158143604697 -0.0009446651591347425 0.006849390046948251 0.0137223614814352 0.00684939004694825 -0.0009520705239437374" id=275 pbc="T T T"
Si       0.00000000       0.00000000       0.00000000      -0.00721031       0.01234345       0.01557786
Si       3.49552409       2.01814038       1.42704316       0.00721031      -0.01234344      -0.01557785
2
Lattice="6.748486001326696 0.0 0.0 2.885443606678459 6.119443417591893 0.0 3.535106881885179 2.718941727563807 5.580818559742059" Properties=species:S:1:pos:R:3:dft_force:R:3 dft_energy=-8.43907173386762 volume=230.4709426204312 dft_virial="-0.0009293159868023121 0.009159686177449711 0.01236294985350769 0.009159686177449711 -0.0004858662452998848 0.009481713254564188 0.012362949853507691 0.00948171325456419 -0.0007124730930760004" id=292 pbc="T T T"
Si       0.00000000       0.00000000       0.00000000       0.02690573      -0.01577073      -0.00029052
Si       3.45170253       1.99284153       1.40915110      -0.02690573       0.01577073       0.00029052
2
Lattice="7.001040338978432 0.0 0.0 3.534107216765252 6.16184698210237 0.0 3.799698774950781 1.9779385401233012 5.682328977978582" Properties=species:S:1:pos:R:3:dft_force:R:3 dft_energy=-8.453917520384229 volume=245.13191770609123 dft_virial="-0.00048077582380041 0.010278611971547684 0.012050673053901872 0.010278611971547684 -0.0003065998335637055 0.006160293627288178 0.012050673053901872 0.006160293627288178 -0.000535672185787218" id=274 pbc="T T T"
Si       0.00000000       0.00000000       0.00000000       0.00138873      -0.01076853      -0.00171993
Si       3.49552825       2.01814286       1.42704305      -0.00138873       0.01076852       0.00171992
2
Lattice="7.458267133736135 0.0 0.0 3.6298558600477904 6.117332593510686 0.0 3.5986942762527114 2.3733901878669883 6.219485518629581" Properties=species:S:1:pos:R:3:dft_force:R:3 dft_energy=-8.455928139136411 volume=283.76216484960634 dft_virial="0.00011999417139268682 0.008628128114287498 0.008432240588153356 0.0086281281142875 -0.00024744888030993524 0.005766802270535335 0.008432240588153356 0.005766802270535333 0.0002771982832511815" id=235 pbc="T T T"
Si       0.00000000       0.00000000       0.00000000      -0.00720994       0.01152517      -0.01997803
Si       3.61064369       2.08460918       1.47403672       0.00720994      -0.01152519       0.01997802
4
Lattice="7.4363899822612165 -0.1916984668083047 -0.011490649776138213 -0.05794510679640865 7.373280235068944 -0.21485422587640657 -0.14034200352897128 -0.17031230397508615 7.321098622877294" Properties=species:S:1:pos:R:3:dft_force:R:3 dft_energy=-16.842572512750454 volume=401.0489155745682 dft_virial="1.1188968875661238e-05 -2.3678206720675706e-05 1.1122347627010839e-05 -2.3678206720675706e-05 2.2444854566809566e-05 -2.109630927240432e-05 1.1122347627010837e-05 -2.1096309272404316e-05 4.731097325476475e-05" id=2313 pbc="T T T"
Si       0.09386702      -0.02612728       0.12239835       0.00190930      -0.00638176      -0.00359370
Si       3.95215474       3.62009781      -0.04424544      -0.00366567       0.00331933      -0.00196170
Si       3.96277224       0.14502461       3.57562329      -0.00373342      -0.00261612       0.00177577
Si       0.10253006       3.57677173       3.57633655       0.00548978       0.00567858       0.00377959
2
Lattice="7.121988480132855 0.0 0.0 3.4510461946834505 6.1489496013018 0.0 3.4339555116123357 2.0290934263169205 5.8884810906401315" Properties=species:S:1:pos:R:3:dft_force:R:3 dft_energy=-8.459030441958626 volume=257.8727698323671 dft_virial="-0.00024279891800201432 0.009337433449920149 0.009701312800588238 0.00933743344992015 -0.0002893777327055997 0.005749228755347349 0.00970131280058824 0.00574922875534735 -0.0001359015234887008" id=248 pbc="T T T"
Si       0.00000000       0.00000000       0.00000000       0.00313724       0.00690069      -0.00099453
Si       3.57711181       2.06524716       1.46034921      -0.00313724      -0.00690069       0.00099452
2
Lattice="7.221652635945619 0.0 0.0 3.8225644610587524 6.097671882910079 0.0 4.097827637550116 2.5967728233328757 5.71881769971898" Properties=species:S:1:pos:R:3:dft_force:R:3 dft_energy=-8.452424877959574 volume=251.82967134471772 dft_virial="-9.750229598540313e-05 0.010871379226857783 0.01242061511471639 0.010871379226857783 -0.0003335114405552338 0.008037312371250247 0.01242061511471639 0.008037312371250247 -0.0004240781473917815" id=240 pbc="T T T"
Si       0.00000000       0.00000000       0.00000000      -0.00924380      -0.00318613      -0.00400332
Si       3.57710399       2.06524198       1.46034584       0.00924381       0.00318612       0.00400332
2
Lattice="6.894199003344339 0.0 0.0 3.022550795924557 6.1134586549552035 0.0 3.336094154522465 2.3235751174957286 5.5935836597139055" Properties=species:S:1:pos:R:3:dft_force:R:3 dft_energy=-8.446851217335574 volume=235.75501110527682 dft_virial="-0.0006643035462793019 0.009232959099254921 0.011240958404668887 0.009232959099254917 -0.0004435587993766106 0.007821222428941985 0.011240958404668884 0.007821222428941985 -0.0007586454975660874" id=283 pbc="T T T"
Si       0.00000000       0.00000000       0.00000000       0.01203248      -0.01308763       0.00970290
Si       3.47275985       2.00499757       1.41774412      -0.01203247       0.01308763      -0.00970290
4
Lattice="7.172441200790347 -0.027443453158571513 -0.1750280966218285 0.04478089666704062 7.250122928485789 0.08420492999682082 0.08734756343933472 -0.11710959716925458 7.5109692331942925" Properties=species:S:1:pos:R:3:dft_force:R:3 dft_energy=-16.8401554100051 volume=390.77003240436176 dft_virial="-2.987339252561624e-05 -2.5516264180164023e-05 -1.6018568516988533e-05 -2.5516264180164023e-05 -7.64589540935739e-05 1.1541784716187333e-05 -1.6018568516988533e-05 1.1541784716187333e-05 -8.515836508052038e-05" id=2283 pbc="T T T"
Si       0.09386606      -0.02612596       0.12239452       0.01039685      -0.00380523      -0.00489838
Si       3.95215721       3.62009437      -0.04424595      -0.01092966       0.00180946      -0.00738845
Si       3.96277027       0.14502463       3.57562673      -0.01075468      -0.00288593       0.00557668
Si       0.10252658       3.57676837       3.57632995       0.01128747       0.00488169       0.00671017
4
Lattice="7.26075190094362 0.05964461308932959 -0.014087813772778885 -0.005758316755175908 7.445082457872838 -0.23068294984149695 0.13968946220087675 -0.03383618876830678 7.102962018311456" Properties=species:S:1:pos:R:3:dft_force:R:3 dft_energy=-16.841009314555322 volume=383.92257625448417 dft_virial="-5.978142622750644e-05 -3.104208240083426e-05 3.6639803110336866e-05 -3.1042082400834276e-05 -0.00014622451404746174 1.1359032188841683e-05 3.6639803110336866e-05 1.1359032188841679e-05 -7.420987714672336e-05" id=2326 pbc="T T T"
Si       0.09386406      -0.02612482       0.12239631       0.00848221      -0.00650052      -0.00205406
Si       3.95215683       3.62009238      -0.04424735      -0.00856875       0.00639824       0.00259806
Si       3.96276882       0.14502586       3.57562442      -0.00871615      -0.00621528      -0.00037054
Si       0.10252732       3.57677090       3.57633402       0.00880270       0.00631754      -0.00017346
2
Lattice="4.956405445964625 -0.07872442187922615 -0.020310001599766682 -2.554234823705892 4.442019991731798 0.03381770724680795 0.14976827869204581 -0.14944749768239057 8.789133874573722" Properties=species:S:1:pos:R:3:dft_force:R:3 dft_energy=-8.423849903576166 volume=191.76862962119654 dft_virial="-8.819191665644969e-05 -2.2875857889266943e-05 6.0405028211618155e-06 -2.2875857889266936e-05 -5.905593786936766e-05 -3.933416897868619e-06 6.0405028211618155e-06 -3.9334168978686205e-06 1.6501777863565176e-06" id=2328 pbc="T T T"
Si       0.09386536      -0.02612665       0.12239382      -0.00087339      -0.00021516      -0.00533645
Si       0.28780931       2.88224623       4.35189243       0.00087339       0.00021516       0.00533656
2
Lattice="6.77323574438092 0.0 0.0 3.4488560021050096 5.738306445242245 0.0 3.42204078839657 2.0730862504982084 5.374458577206799" Properties=species:S:1:pos:R:3:dft_force:R:3 dft_energy=-8.420143270590291 volume=208.88855658148222 dft_virial="-0.0011326082975402219 0.013497777331692879 0.014284588549899427 0.013497777331692877 -0.0015349039620698936 0.008804042047477723 0.014284588549899427 0.008804042047477723 -0.0017672340878835758" id=320 pbc="T T T"
Si       0.00000000       0.00000000       0.00000000      -0.01766563       0.00997168       0.02876402
Si       3.39732189       1.96144584       1.38695428       0.01766562      -0.00997168      -0.02876402
4
Lattice="7.079294048977275 -0.22458597526752686 0.22621588294727782 0.04413903229155022 7.581021059380728 0.03364608232016943 -0.029587706494923132 -0.01596797788321405 7.543321911365723" Properties=species:S:1:pos:R:3:dft_force:R:3 dft_energy=-16.835632307267467 volume=404.96647780849344 dft_virial="-6.03321146031504e-05 -7.851246736610575e-05 7.793417462810595e-05 -7.851246736610575e-05 -2.0945272706594137e-05 -5.688794964114492e-05 7.793417462810595e-05 -5.688794964114492e-05 4.869251649688268e-06" id=2317 pbc="T T T"
Si       0.09386425      -0.02612932       0.12239577       0.01417082      -0.00702609      -0.01057613
Si       3.95215619       3.62009474      -0.04424546      -0.00963004       0.00486482      -0.00590324
Si       3.96276874       0.14502166       3.57562565      -0.02006327      -0.01077949       0.01157986
Si       0.10253206       3.57676845       3.57633130       0.01552249       0.01294070       0.00489961
2
Lattice="7.127351522874543 0.0 0.0 2.981700586288522 6.1675482858203665 0.0 3.78248714940769 1.7581709507338226 5.720582703919381" Properties=species:S:1:pos:R:3:dft_force:R:3 dft_energy=-8.453677603163262 volume=251.46700296197307 dft_virial="-0.00026209122211218227 0.008120490164565626 0.011472537638000206 0.008120490164565626 -0.0002556322858794845 0.005165790494235151 0.011472537638000206 0.005165790494235152 -0.0004061644221929417" id=268 pbc="T T T"
Si       0.00000000       0.00000000       0.00000000      -0.00230252      -0.00400891       0.00360092
Si       3.52022826       2.03240326       1.43712479       0.00230252       0.00400891      -0.00360092
2
Lattice="7.029072536311131 0.0 0.0 3.970161520022649 6.160996605346289 0.0 3.7853274077730017 2.433649774529055 5.772024828483944" Properties=species:S:1:pos:R:3:dft_force:R:3 dft_energy=-8.453684881506376 volume=249.96383845031727 dft_virial="-0.0003809612565263676 0.011362770855339344 0.011471371877288375 0.01136277085533934 -0.0002806898004067223 0.007425563320340181 0.011471371877288368 0.007425563320340178 -0.00031442584702147885" id=260 pbc="T T T"
Si       0.00000000       0.00000000       0.00000000       0.00518532      -0.01201185      -0.01373065
Si       3.52022480       2.03240043       1.43712451      -0.00518532       0.01201184       0.01373063
4
Lattice="7.498355953819297 0.0023301834897535446 0.1468551146928452 0.13437107368751372 7.3288030740819154 0.04006763625330525 -0.1245828025880059 0.17646449634641778 7.444496718363249" Properties=species:S:1:pos:R:3:dft_force:R:3 dft_energy=-16.842305307572435 volume=409.18688771600654 dft_virial="7.837078763603408e-05 7.657590386500396e-06 2.4362018926773185e-05 7.657590386500396e-06 7.611859198909605e-05 1.338537452377091e-05 2.4362018926773182e-05 1.3385374523770903e-05 8.543621110085273e-05" id=2318 pbc="T T T"
Si       0.09386253      -0.02612446       0.12239749       0.00206146      -0.00337159      -0.00231823
Si       3.95215517       3.62009535      -0.04424601      -0.00257495       0.00456411      -0.00588192
Si       3.96277061       0.14502669       3.57562138      -0.00133425      -0.00214068       0.00384731
Si       0.10253119       3.57676633       3.57633345       0.00184779       0.00094821       0.00435285
2
Lattice="7.006246534451775 0.0 0.0 3.335788018890276 5.996405239343633 0.0 3.3680286363025163 2.1625043112632505 5.914782298842672" Properties=species:S:1:pos:R:3:dft_force:R:3 dft_energy=-8.453875235079856 volume=248.4935694976954 dft_virial="-0.00042240403479403487 0.009758643161829809 0.009992578662141944 0.009758643161829813 -0.0006131633647756836 0.006515433317252433 0.009992578662141947 0.006515433317252432 -0.00013586990563135896" id=254 pbc="T T T"
Si       0.00000000       0.00000000       0.00000000       0.00601463       0.01747504      -0.00694316
Si       3.54722919       2.04799456       1.44815165      -0.00601461      -0.01747504       0.00694316
2
Lattice="4.991359124276729 -0.04963891010192231 0.1193464281884516 -2.5293837724341275 4.294485048065619 -0.13527290768596886 -0.01872896223759853 0.03684501070393594 8.86324097743456" Properties=species:S:1:pos:R:3:dft_force:R:3 dft_energy=-8.423564985155815 volume=188.8967778537166 dft_virial="-0.00010975337281707447 -4.2733317435100834e-05 2.8636809915412384e-05 -4.273331743510086e-05 -0.00016418359753156382 -1.9539577449501675e-05 2.8636809915412397e-05 -1.9539577449501675e-05 -2.4602567094474193e-05" id=2371 pbc="T T T"
Si       0.09386478      -0.02612698       0.12239852      -0.00137261       0.00002822      -0.00396376
Si       0.28780638       2.88224797       4.35189360       0.00137261      -0.00002822       0.00396386
2
Lattice="5.131129561242046 -0.02964662815548896 -0.11127640946502099 -2.4194581203057277 4.364875116331102 -0.04696247209435359 0.20836864802216845 0.19275070410901882 8.726355982186195" Properties=species:S:1:pos:R:3:dft_force:R:3 dft_energy=-8.424314382455346 volume=195.01583058281938 dft_virial="2.5544524874422396e-05 1.9596195119807874e-05 4.010562974580407e-06 1.9596195119807888e-05 1.782871837748349e-05 -2.811746545503747e-06 4.010562974580409e-06 -2.8117465455037456e-06 4.727664773026373e-05" id=2338 pbc="T T T"
Si       0.09386542      -0.02612548       0.12239822       0.00020361       0.00059461      -0.00164877
Si       0.28780735       2.88224494       4.35189183      -0.00020361      -0.00059461       0.00164875
2
Lattice="6.815185774621487 0.0 0.0 3.848174029499681 5.904916038746002 0.0 3.9208982496797793 1.2962292892951777 5.442800522503891" Properties=species:S:1:pos:R:3:dft_force:R:3 dft_energy=-8.430921032894704 volume=219.0351645511037 dft_virial="-0.0009342281758726209 0.013703628730842864 0.015123846718414765 0.013703628730842868 -0.0008921127915142614 0.004862465861039743 0.015123846718414768 0.004862465861039742 -0.001146699076407652" id=317 pbc="T T T"
Si       0.00000000       0.00000000       0.00000000      -0.00169810      -0.00370936       0.00522251
Si       3.41417817       1.97117708       1.39383589       0.00169810       0.00370936      -0.00522253
2
Lattice="6.8114044326461105 0.0 0.0 3.655489994928339 5.867450328599171 0.0 4.120077272941461 1.8291301667135202 5.822138475582894" Properties=species:S:1:pos:R:3:dft_force:R:3 dft_energy=-8.440841656401155 volume=232.68512457847683 dft_virial="-0.0008007024356787556 0.012148292011122257 0.01388416510175598 0.012148292011122252 -0.0010003647917806548 0.006030360179873508 0.013884165101755974 0.006030360179873509 -0.00034018716759208045" id=287 pbc="T T T"
Si       0.00000000       0.00000000       0.00000000       0.00467437       0.02099773      -0.02039282
Si       3.47276168       2.00499738       1.41774894      -0.00467438      -0.02099773       0.02039281
4
Lattice="7.145614025115539 -0.29691751035892777 0.045511615964910906 0.1183176045944216 7.346740259970556 0.376889926268118 -0.19317986091192135 -0.12200143670176708 7.306012447895613" Properties=species:S:1:pos:R:3:dft_force:R:3 dft_energy=-16.839380638878477 volume=384.214298594646 dft_virial="-0.00010496907399616101 -0.00010629324898357817 7.887754816029709e-06 -0.0001062932489835782 -0.00019140290928642574 -3.07875416425207e-05 7.887754816029705e-06 -3.0787541642520686e-05 -0.00013524416028794535" id=2299 pbc="T T T"
Si       0.09386810      -0.02612658       0.12239265       0.01069933      -0.00327828      -0.00349253
Si       3.95215430       3.62009586      -0.04424616      -0.01133602       0.00249638      -0.00692905
Si       3.96277254       0.14502227       3.57562654      -0.01397181      -0.00835502       0.00628832
Si       0.10252970       3.57676918       3.57633364       0.01460851       0.00913691       0.00413329
2
Lattice="7.547159850638532 0.0 0.0 3.5897898867534748 6.26821777593143 0.0 3.657298462829606 2.2534700577243614 5.96756234950347" Properties=species:S:1:pos:R:3:dft_force:R:3 dft_energy=-8.459733844029829 volume=282.3089134345898 dft_virial="0.0002027387486229404 0.008358125751946392 0.008997863992325592 0.008358125751946392 -3.374753108606964e-05 0.005654202805321708 0.008997863992325588 0.0056542028053217066 2.4813752694497765e-05" id=229 pbc="T T T"
Si       0.00000000       0.00000000       0.00000000      -0.00799374       0.00024250      -0.00347748
Si       3.64867748       2.10656383       1.48956324       0.00799374      -0.00024250       0.00347748
2
Lattice="7.096868350758204 0.0 0.0 3.1903603655174506 6.061523311872112 0.0 3.3591185776249057 2.5335425872028976 5.82006922547643" Properties=species:S:1:pos:R:3:dft_force:R:3 dft_energy=-8.453783641471793 volume=250.36676569553688 dft_virial="-0.0003070414555292511 0.008995023740763212 0.009961143673112184 0.008995023740763212 -0.0004277976133652162 0.007723164514294443 0.009961143673112184 0.007723164514294444 -0.0002467615530635586" id=261 pbc="T T T"
Si       0.00000000       0.00000000       0.00000000       0.00543427       0.00245635      -0.00771163
Si       3.52023105       2.03240436       1.43712642      -0.00543426      -0.00245635       0.00771163
2
Lattice="5.090616270876771 0.16605758560549122 -0.05215714023833737 -2.4968159867379307 4.2536247850866005 0.19302108612293029 0.13607628695333104 -0.13897452211614708 8.62248716684888" Properties=species:S:1:pos:R:3:dft_force:R:3 dft_energy=-8.423448050144167 volume=190.4356659770928 dft_virial="-2.5896620121948828e-05 6.100264345414197e-05 1.6116824447133945e-05 6.1002643454141955e-05 -0.00010273034955262843 3.591403503726033e-05 1.611682444713394e-05 3.591403503726034e-05 -6.46426039425926e-05" id=2368 pbc="T T T"
Si       0.09386600      -0.02612715       0.12239888      -0.00027614      -0.00000207      -0.00774594
Si       0.28780937       2.88224689       4.35189351       0.00027614       0.00000207       0.00774604
2
Lattice="7.013026871786932 0.0 0.0 3.2034145935863654 6.063239183193272 0.0 3.4733317348711625 1.6154890694200783 5.8766703023612195" Properties=species:S:1:pos:R:3:dft_force:R:3 dft_energy=-8.454171523072402 volume=249.8857725435775 dft_virial="-0.00042920554217766783 0.009099781178618958 0.010290895491074575 0.009099781178618958 -0.0004440335385954487 0.004671671186386514 0.010290895491074575 0.004671671186386514 -0.0001620924397902302" id=262 pbc="T T T"
Si       0.00000000       0.00000000       0.00000000       0.00438588       0.01202277      -0.00828139
Si       3.52022948       2.03240598       1.43712797      -0.00438588      -0.01202275       0.00828139
2
Lattice="5.254675244338335 0.10091685526077755 -0.06874235936563794 -2.674383837476734 4.172357377658726 -0.020585485874214625 0.03794570058248547 -0.22046482274042048 8.374370756514521" Properties=species:S:1:pos:R:3:dft_force:R:3 dft_energy=-8.423355631645085 volume=185.80950033544744 dft_virial="-0.00011858305738197657 1.0741818651606058e-05 -1.0818541253826918e-05 1.0741818651606055e-05 -0.00011334423894755799 -4.2012226252363094e-05 -1.0818541253826918e-05 -4.201222625236311e-05 -0.0001959030962231264" id=2359 pbc="T T T"
Si       0.09386755      -0.02612887       0.12239983      -0.00052004       0.00080140       0.00505257
Si       0.28781009       2.88224430       4.35188794       0.00052004      -0.00080140      -0.00505252
2
Lattice="7.180265744090189 0.0 0.0 3.337020120323532 6.0573432376844405 0.0 3.0265154413340225 2.173768968692145 5.903366463323809" Properties=species:S:1:pos:R:3:dft_force:R:3 dft_energy=-8.455361126030366 volume=256.75709019772285 dft_virial="-0.00014713512490236146 0.009126991726762648 0.008436795683318205 0.009126991726762644 -0.0004235050007049949 0.006246483235662556 0.008436795683318201 0.006246483235662555 -0.00011242552457501188" id=247 pbc="T T T"
Si       0.00000000       0.00000000       0.00000000       0.00223566       0.01542366      -0.00258876
Si       3.57710274       2.06524058       1.46034528      -0.00223565      -0.01542366       0.00258876
2
Lattice="7.004568457653108 0.0 0.0 3.659001106067894 5.970344026358919 0.0 3.4595064985434005 2.06888727904929 5.651116371578137" Properties=species:S:1:pos:R:3:dft_force:R:3 dft_energy=-8.449757708284503 volume=236.32789778930658 dft_virial="-0.0005090919585230381 0.01157934035694055 0.011507369839168379 0.01157934035694055 -0.0007028366446706983 0.00696749853883642 0.011507369839168375 0.006967498538836415 -0.0006808713536572319" id=273 pbc="T T T"
Si       0.00000000       0.00000000       0.00000000      -0.00756920       0.00484994       0.00551862
Si       3.49552022       2.01814025       1.42704252       0.00756920      -0.00484995      -0.00551863
2
Lattice="6.90674489508573 0.0 0.0 3.441537092824334 5.871044587688209 0.0 3.5786556204271798 2.1223910948158196 5.690855422252892" Properties=species:S:1:pos:R:3:dft_force:R:3 dft_energy=-8.44481374228143 volume=230.76309037367741 dft_virial="-0.0007755125291429033 0.011341931945715436 0.012228666243358194 0.011341931945715436 -0.0009534946743296355 0.007350781228417938 0.012228666243358194 0.007350781228417939 -0.000577475825741199" id=319 pbc="T T T"
Si       0.00000000       0.00000000       0.00000000      -0.00406393       0.00471730      -0.02027811
Si       3.39732978       1.96144956       1.38695253       0.00406393      -0.00471731       0.02027810
2
Lattice="5.180695641299125 -0.15231219020649453 0.03786546281123385 -2.665659198726472 4.379135235331924 -0.07724920718003704 0.010911278643589196 -0.044776720372305186 8.560993418952082" Properties=species:S:1:pos:R:3:dft_force:R:3 dft_energy=-8.424127290287563 volume=190.7320231366048 dft_virial="-3.2892704989718726e-05 -4.1641765484142324e-05 -2.9397283605902278e-06 -4.1641765484142324e-05 -5.395483030981377e-05 -3.1951375079899044e-05 -2.939728360590227e-06 -3.1951375079899044e-05 -4.6599529842253804e-05" id=2365 pbc="T T T"
Si       0.09386500      -0.02612820       0.12239378      -0.00108373       0.00011972      -0.00032461
Si       0.28781047       2.88224451       4.35189436       0.00108373      -0.00011972       0.00032460
2
Lattice="6.98594898614717 0.0 0.0 3.407896188353746 6.244171010995567 0.0 3.715696669258916 2.5090933106024895 5.6310191342427425" Properties=species:S:1:pos:R:3:dft_force:R:3 dft_energy=-8.451387917634177 volume=245.63327673218515 dft_virial="-0.0005068608223355452 0.009705431356871276 0.011795112673789142 0.009705431356871276 -0.00017244087664759942 0.007976267229357157 0.011795112673789142 0.007976267229357157 -0.0005901906275518422" id=282 pbc="T T T"
Si       0.00000000       0.00000000       0.00000000       0.00814205      -0.02136058      -0.00552500
Si       3.47275728       2.00499874       1.41774422      -0.00814205       0.02136057       0.00552498
2
Lattice="7.078332027201751 0.0 0.0 3.6056730348309545 5.925950580239211 0.0 3.3779572573613 1.6350212786442104 5.469428653325992" Properties=species:S:1:pos:R:3:dft_force:R:3 dft_energy=-8.441124245959726 volume=229.4198108174823 dft_virial="-0.0005411437160875759 0.01181582917871264 0.011954207138117607 0.011815829178712644 -0.0007465359477297634 0.005852228336867127 0.011954207138117607 0.0058522283368671255 -0.0011385763267655177" id=310 pbc="T T T"
Si       0.00000000       0.00000000       0.00000000      -0.02141475      -0.00531257       0.01118700
Si       3.41417856       1.97117767       1.39383466       0.02141475       0.00531258      -0.01118700
4
Lattice="7.565635778548043 0.07890695052560376 -0.00040379667831003455 -0.05471240900679509 7.5342773041880395 0.06767861363282485 -0.07058493682345429 -0.002502261950661967 7.391722110113689" Properties=species:S:1:pos:R:3:dft_force:R:3 dft_energy=-16.840720393654628 volume=421.37257274951173 dft_virial="0.00017330476833127075 6.594352994753255e-06 -7.232343352286535e-07 6.59435299475325e-06 0.000146452249313887 7.685929352325199e-06 -7.232343352286532e-07 7.685929352325202e-06 0.00011575313899295098" id=2291 pbc="T T T"
Si       0.09386831      -0.02613053       0.12239516       0.00033243      -0.00455133      -0.00145995
Si       3.95215409       3.62009465      -0.04424580      -0.00128229       0.00346065      -0.00460847
Si       3.96277033       0.14502219       3.57562119      -0.00056611      -0.00247016       0.00330830
Si       0.10252883       3.57676620       3.57633602       0.00151593       0.00356087       0.00276010
4
Lattice="7.331430587080117 0.05488429849509105 0.12649573454944205 0.1506867989721814 7.329439439354382 0.1360468639175706 -0.025354474311365206 0.23642979595909638 7.222742951227744" Properties=species:S:1:pos:R:3:dft_force:R:3 dft_energy=-16.842214483164668 volume=387.8483601576217 dft_virial="-4.566388815430858e-05 -7.342470666583083e-06 6.853910526181745e-05 -7.342470666583083e-06 -9.208963196912947e-05 -1.5469030273089988e-05 6.853910526181748e-05 -1.5469030273089994e-05 -4.338021125164651e-05" id=2300 pbc="T T T"
Si       0.09386797      -0.02613077       0.12239355       0.00628517      -0.00393011      -0.00132686
Si       3.95215245       3.62009756      -0.04424282      -0.00620440       0.00507558      -0.00398623
Si       3.96277101       0.14502658       3.57562592      -0.00586267      -0.00253955       0.00353674
Si       0.10252739       3.57677085       3.57633445       0.00578190       0.00139410       0.00177636
4
Lattice="7.1313111038179935 0.010417531001746975 0.05476685201644556 0.14352639991883942 7.421129687914414 -0.12170263320694126 -0.05959018897694038 0.06191396629513144 7.446356926965807" Properties=species:S:1:pos:R:3:dft_force:R:3 dft_energy=-16.839609135451354 volume=394.1463477038933 dft_virial="-5.0232385122199786e-05 -4.710493397539434e-06 2.3225075400797306e-05 -4.710493397539433e-06 -4.6568387617268996e-05 1.225565170445025e-05 2.3225075400797295e-05 1.225565170445025e-05 -4.513351282177263e-05" id=2310 pbc="T T T"
Si       0.09386236      -0.02612544       0.12239885       0.01144622      -0.00641415      -0.00723988
Si       3.95215341       3.62009845      -0.04424387      -0.01025171       0.00579272      -0.00559008
Si       3.96277260       0.14502418       3.57562492      -0.01125781      -0.00532052       0.00708101
Si       0.10252730       3.57676903       3.57633222       0.01006330       0.00594193       0.00574896
2
Lattice="6.903685428489961 0.0 0.0 3.6336882246285316 5.955589044777842 0.0 3.0345184314718128 2.2564293688355255 5.599825425103544" Properties=species:S:1:pos:R:3:dft_force:R:3 dft_energy=-8.444304970600196 volume=230.23969677996232 dft_virial="-0.0006956357028127889 0.01190956923486112 0.010462709899629911 0.01190956923486112 -0.0007703984384183842 0.007905399922554374 0.010462709899629911 0.007905399922554374 -0.0007873395068705048" id=290 pbc="T T T"
Si       0.00000000       0.00000000       0.00000000       0.00099031       0.00064415       0.00164481
Si       3.45170452       1.99284192       1.40915127      -0.00099030      -0.00064415      -0.00164481
4
Lattice="7.150246613121014 -0.23217874365818325 0.1228956173094175 0.15258962089885084 7.278121866638694 -0.1887501728004473 -0.1194494938512887 0.13659890961035753 7.386378739420959" Properties=species:S:1:pos:R:3:dft_force:R:3 dft_energy=-16.83898329675743 volume=384.940063469338 dft_virial="-0.0001175034187477616 -8.315654289188667e-05 4.720196949798119e-05 -8.31565428918867e-05 -0.0001393710285064881 4.406228562209546e-06 4.720196949798119e-05 4.406228562209545e-06 -0.00011608703040223901" id=2311 pbc="T T T"
Si       0.09386455      -0.02612601       0.12239754       0.01165699      -0.00253929      -0.00703710
Si       3.95215636       3.62009456      -0.04424939      -0.01049987       0.00197504      -0.00396988
Si       3.96277320       0.14502620       3.57562100      -0.01412762      -0.00732268       0.00624267
Si       0.10252815       3.57677064       3.57633664       0.01297051       0.00788691       0.00476434
2
Lattice="5.016791549790735 -0.1654646084448449 0.014183244942072487 -2.4928356754988927 4.593779758300281 0.009118778928075423 0.003769077652827345 -0.14958573114840695 9.134443434840284" Properties=species:S:1:pos:R:3:dft_force:R:3 dft_energy=-8.422032459765806 volume=206.75684868238835 dft_virial="8.238625219766424e-05 1.0520766822283276e-05 1.821951621510243e-05 1.052076682228329e-05 0.0001644959735974975 -2.2134238783346715e-05 1.8219516215102426e-05 -2.2134238783346705e-05 0.0001145354891392401" id=2372 pbc="T T T"
Si       0.09386714      -0.02612849       0.12239958      -0.00118052      -0.00007119      -0.00669652
Si       0.28780746       2.88224695       4.35189345       0.00118052       0.00007118       0.00669653
2
Lattice="7.055184771901209 0.0 0.0 3.2155220688668424 5.884306685630833 0.0 3.1231125716465176 1.7523827196140938 5.798522568203445" Properties=species:S:1:pos:R:3:dft_force:R:3 dft_energy=-8.448616564789203 volume=240.7249159552935 dft_virial="-0.000485715775854049 0.009817964107365643 0.00968464883040342 0.00981796410736564 -0.0008304862981088825 0.00553787599705093 0.009684648830403417 0.005537875997050928 -0.0003127339032141185" id=299 pbc="T T T"
Si       0.00000000       0.00000000       0.00000000      -0.00839566       0.01664801      -0.01748648
Si       3.43223065       1.98160066       1.40120138       0.00839566      -0.01664801       0.01748648
2
Lattice="7.243087799377248 0.0 0.0 3.6253356351576858 6.4434974328949695 0.0 4.073376471223583 2.3706595336169043 5.841162348479502" Properties=species:S:1:pos:R:3:dft_force:R:3 dft_energy=-8.458066829246924 volume=272.6118227804007 dft_virial="-5.123206690585837e-05 0.00871668743300465 0.010891200680680184 0.00871668743300465 0.00013783924085191717 0.006285471514858395 0.010891200680680188 0.006285471514858397 -0.00014996773751856763" id=237 pbc="T T T"
Si       0.00000000       0.00000000       0.00000000       0.00311769      -0.01654262      -0.00651015
Si       3.61064961       2.08460562       1.47404069      -0.00311770       0.01654261       0.00651013
2
Lattice="6.878803404607013 0.0 0.0 3.915540876116465 5.860645424824393 0.0 3.9443157358161414 2.2089821252984216 5.55564173858367" Properties=species:S:1:pos:R:3:dft_force:R:3 dft_energy=-8.436862992669655 volume=223.97140607708917 dft_virial="-0.0007939917212516913 0.013625220351751299 0.014445811630255094 0.013625220351751306 -0.0009504945603977716 0.008148548117741539 0.014445811630255101 0.008148548117741537 -0.0008868733852008663" id=325 pbc="T T T"
Si       0.00000000       0.00000000       0.00000000      -0.00364791      -0.00415399      -0.01517040
Si       3.39732640       1.96144548       1.38695485       0.00364791       0.00415398       0.01517040
4
Lattice="7.41808728554555 -0.1067180876962437 -0.279513869744313 0.059234391342195825 7.157940462962077 0.1781343717337046 0.005444074197911889 0.04957477279725252 7.24121867126738" Properties=species:S:1:pos:R:3:dft_force:R:3 dft_energy=-16.842859691364332 volume=384.4861072610435 dft_virial="-0.0001477861306249205 -4.3188429163723257e-05 1.2548838010508042e-05 -4.3188429163723257e-05 -7.171597579675387e-06 5.018352405263913e-05 1.2548838010508047e-05 5.018352405263916e-05 -6.861234016549828e-05" id=2302 pbc="T T T"
Si       0.09386273      -0.02612518       0.12239726       0.00541303      -0.00045139      -0.00238007
Si       3.95215300       3.62009650      -0.04424302      -0.00620219       0.00126917      -0.00412989
Si       3.96277158       0.14502301       3.57562153      -0.00421774      -0.00045713       0.00264661
Si       0.10252798       3.57677164       3.57633659       0.00500689      -0.00036065       0.00386336
2
Lattice="5.03335651105398 -0.10030722961297327 -0.05306817720301945 -2.6306701447413143 4.4203383135272105 -0.013905304023662529 -0.012925292055431605 0.03898635386205563 9.011039216641684" Properties=species:S:1:pos:R:3:dft_force:R:3 dft_energy=-8.423663521970257 volume=198.11519197978527 dft_virial="1.117720882070125e-05 -4.294662787652149e-05 1.2173044607516503e-05 -4.294662787652148e-05 2.633825850021134e-05 3.497601291490389e-06 1.2173044607516503e-05 3.4976012914903896e-06 4.1152527629424156e-05" id=2335 pbc="T T T"
Si       0.09386670      -0.02612922       0.12239866      -0.00156561       0.00061668      -0.00508565
Si       0.28780901       2.88224606       4.35189413       0.00156561      -0.00061668       0.00508565
2
Lattice="6.916253996944848 0.0 0.0 3.207560652703794 5.767674678945054 0.0 2.656777296968118 1.8041479873459674 5.5099160355461" Properties=species:S:1:pos:R:3:dft_force:R:3 dft_energy=-8.430757267425323 volume=219.79442441173836 dft_virial="-0.0007088392628843272 0.011430003739008968 0.00980719800098856 0.011430003739008973 -0.0012587709649682175 0.006857330592804047 0.009807198000988565 0.006857330592804048 -0.001041602302138282" id=288 pbc="T T T"
Si       0.00000000       0.00000000       0.00000000      -0.01262424       0.02491392       0.00568939
Si       3.45169772       1.99284022       1.40915001       0.01262425      -0.02491391      -0.00568939
4
Lattice="7.380397964106392 0.03717524034421429 -0.04931023003706615 -0.03542559961720703 7.07421278329803 0.21048311927479596 -0.1453101313051349 -0.12521421677802708 7.4063540705240545" Properties=species:S:1:pos:R:3:dft_force:R:3 dft_energy=-16.84264786066404 volume=386.8417141743198 dft_virial="-7.838469474577918e-05 -1.9484283904740566e-05 2.5052769995134558e-05 -1.9484283904740566e-05 -3.572944573791094e-05 3.766314566610678e-05 2.5052769995134558e-05 3.766314566610678e-05 -8.884603625221164e-05" id=2325 pbc="T T T"
Si       0.09386109      -0.02612728       0.12239554       0.00546327       0.00048130      -0.00584368
Si       3.95215468       3.62009646      -0.04424559      -0.00673433      -0.00032047      -0.00590381
Si       3.96277107       0.14502185       3.57562454      -0.00435296       0.00099052       0.00494163
Si       0.10252805       3.57677111       3.57633198       0.00562398      -0.00115134       0.00680583
4
Lattice="7.351459076179099 0.11091658671363101 0.14688361176280457 0.12188699488765974 7.319283162989365 0.059723546949555215 -0.07893183821866508 0.04405541191053553 7.265288982190757" Properties=species:S:1:pos:R:3:dft_force:R:3 dft_energy=-16.842277097049053 volume=390.89394749757804 dft_virial="-6.195923941467014e-05 4.325227191281998e-06 4.588141665133115e-05 4.325227191281998e-06 -4.645590699466157e-05 1.2000299107452155e-05 4.588141665133115e-05 1.2000299107452155e-05 -1.4949714127561258e-05" id=2315 pbc="T T T"
Si       0.09386704      -0.02612854       0.12239293       0.00664545      -0.00434036      -0.00250887
Si       3.95215714       3.62009558      -0.04424556      -0.00569984       0.00460258      -0.00386282
Si       3.96277080       0.14502042       3.57562499      -0.00600505      -0.00273152       0.00359059
Si       0.10252930       3.57676731       3.57633649       0.00505947       0.00246928       0.00278114
2
Lattice="7.223818262084439 0.0 0.0 3.5552324651124434 6.068653248540326 0.0 4.28245199019993 2.1320721617522773 5.72790728237843" Properties=species:S:1:pos:R:3:dft_force:R:3 dft_energy=-8.453053535664793 volume=251.10485764429475 dft_virial="-0.00010011804676254455 0.010117021815163996 0.013088402448947904 0.010117021815163997 -0.00041698060095331896 0.006508797351209438 0.013088402448947907 0.0065087973512094385 -0.0004044505711162361" id=243 pbc="T T T"
Si       0.00000000       0.00000000       0.00000000      -0.01253605       0.00471143      -0.00096106
Si       3.57710444       2.06524445       1.46034715       0.01253605      -0.00471144       0.00096105
2
Lattice="7.03735709564149 0.0 0.0 3.715832729539889 6.029532138308324 0.0 3.854028401033772 1.695755186563558 5.864878411343555" Properties=species:S:1:pos:R:3:dft_force:R:3 dft_energy=-8.453806745920756 volume=248.85834936033345 dft_virial="-0.0003969644936940126 0.010847766752845035 0.011608349355385855 0.010847766752845035 -0.000513440345095507 0.005009854393673833 0.011608349355385851 0.005009854393673831 -0.00018557788010809093" id=263 pbc="T T T"
Si       0.00000000       0.00000000       0.00000000      -0.00365977       0.01038754      -0.01453901
Si       3.52022992       2.03240719       1.43712980       0.00365977      -0.01038753       0.01453900
2
Lattice="6.98165552839202 0.0 0.0 2.991067958688292 5.98105121458105 0.0 3.870395318999156 2.2891216307915516 5.655596912219625" Properties=species:S:1:pos:R:3:dft_force:R:3 dft_energy=-8.446832868287077 volume=236.1643757615342 dft_virial="-0.000559315668225199 0.00922024442796607 0.012919210551666735 0.009220244427966071 -0.000661455528539302 0.007644863463153127 0.012919210551666739 0.007644863463153128 -0.000570080779056381" id=306 pbc="T T T"
Si       0.00000000       0.00000000       0.00000000      -0.00086293      -0.00436597      -0.01206988
Si       3.43223533       1.98160013       1.40120240       0.00086294       0.00436597       0.01206987
2
Lattice="6.968024933855095 0.0 0.0 3.218687360125591 6.116287574963768 0.0 3.8326461499336313 1.9552674958061658 5.708102952592352" Properties=species:S:1:pos:R:3:dft_force:R:3 dft_energy=-8.452495491240942 volume=243.27046788628627 dft_virial="-0.0005019454508026819 0.009470361595953498 0.012276137000786471 0.009470361595953498 -0.0004059391212441003 0.0061165224735202596 0.012276137000786471 0.006116522473520258 -0.0005043162956083797" id=267 pbc="T T T"
Si       0.00000000       0.00000000       0.00000000       0.00431034      -0.00241283       0.00415548
Si       3.52022999       2.03240784       1.43712908      -0.00431034       0.00241282      -0.00415548
2
Lattice="7.125115976869111 0.0 0.0 3.306313960524488 6.446418949483641 0.0 3.826810675660787 2.0317428223436464 5.986812989535033" Properties=species:S:1:pos:R:3:dft_force:R:3 dft_energy=-8.458588773529138 volume=274.9831969609617 dft_virial="-0.0002033787959519144 0.0077741934963713975 0.009870826881302138 0.007774193496371399 0.00011284036854998949 0.0050795122694334656 0.00987082688130214 0.005079512269433465 5.177067967533548e-05" id=241 pbc="T T T"
Si       0.00000000       0.00000000       0.00000000       0.01309320      -0.01042286      -0.01120895
Si       3.57710644       2.06524192       1.46034533      -0.01309320       0.01042286       0.01120895
4
Lattice="7.466819637333706 -0.34404648622212214 -0.08204334787190638 -0.2567954877877558 7.095149663745119 -0.06310379455497955 0.29141459008949505 0.13015439550480754 7.542053659471703" Properties=species:S:1:pos:R:3:dft_force:R:3 dft_energy=-16.84120463090449 volume=399.1381422703754 dft_virial="-3.8167464231576414e-05 -0.00010899178211661159 -1.7907201295143443e-05 -0.00010899178211661153 8.308669731422875e-06 -4.108426265949541e-07 -1.7907201295143443e-05 -4.1084262659495413e-07 1.4156758734692551e-05" id=2319 pbc="T T T"
Si       0.09386158      -0.02612747       0.12239235       0.01147181       0.00499349      -0.00503325
Si       3.95215166       3.62009399      -0.04424932      -0.00864838      -0.00287629      -0.00669270
Si       3.96277246       0.14502180       3.57562223      -0.00905322      -0.00051727       0.00561904
Si       0.10252654       3.57676924       3.57633524       0.00622990      -0.00159993       0.00610694
4
Lattice="7.511220717946958 -0.1872151482694138 -0.03973088705789694 -0.11105455561798994 7.433619662659776 0.18464359006176181 0.18735680213971576 -0.11143811332950522 7.409061443348283" Properties=species:S:1:pos:R:3:dft_force:R:3 dft_energy=-16.841929498841036 volume=413.7379574720906 dft_virial="8.879562967950726e-05 -1.8692956894774548e-05 -6.267800270396691e-06 -1.8692956894774555e-05 8.626898679990638e-05 -1.0922713513351194e-05 -6.267800270396692e-06 -1.0922713513351194e-05 0.00011714137371944711" id=2286 pbc="T T T"
Si       0.09386249      -0.02612822       0.12239499       0.00199444      -0.00491194      -0.00117607
Si       3.95215598       3.62009811      -0.04424361      -0.00096808       0.00437436      -0.00480514
Si       3.96277095       0.14502291       3.57562471      -0.00523879      -0.00286588       0.00380359
Si       0.10252839       3.57677200       3.57632980       0.00421249       0.00340342       0.00217762
2
Lattice="4.9959459431154665 -0.042189704204953764 0.044668306784535414 -2.661201599360137 4.541997161779844 0.05637221215383764 -0.17191832551662184 0.024426977832137632 8.488915447312081" Properties=species:S:1:pos:R:3:dft_force:R:3 dft_energy=-8.424554030440117 volume=191.6992481109526 dft_virial="1.493917289837721e-08 -8.970001035618062e-06 -1.7675229571370205e-07 -8.970001035618066e-06 -3.070285189596406e-05 1.1211264049338077e-05 -1.767522957137011e-07 1.1211264049338077e-05 -9.101059248860775e-05" id=2344 pbc="T T T"
Si       0.09386659      -0.02612890       0.12239180      -0.00098402       0.00093064      -0.00273099
Si       0.28780782       2.88224415       4.35189387       0.00098402      -0.00093064       0.00273098
2
Lattice="5.055476681308526 -0.019350304187375485 0.1825662519274832 -2.5215333398863784 4.424816284141169 -0.07324342243283907 0.08940940581939141 -0.06322010719795028 8.588394013122146" Properties=species:S:1:pos:R:3:dft_force:R:3 dft_energy=-8.424151776666632 volume=191.6331020659112 dft_virial="-1.6069031735773e-05 -6.700835934056869e-07 4.9525369427418396e-05 -6.700835934056876e-07 9.26948557932268e-06 -3.514379633041333e-06 4.9525369427418396e-05 -3.5143796330413342e-06 -7.846717374645751e-05" id=2360 pbc="T T T"
Si       0.09386478      -0.02612875       0.12239981      -0.00050113      -0.00026230      -0.00331289
Si       0.28780695       2.88224695       4.35189521       0.00050113       0.00026230       0.00331289
2
Lattice="6.965233808369023 0.0 0.0 3.4011819914329506 6.22481643602715 0.0 3.720984122955619 1.8227088773420417 5.6388199236851975" Properties=species:S:1:pos:R:3:dft_force:R:3 dft_energy=-8.452151717798719 volume=244.48401774081077 dft_virial="-0.000496416779765984 0.009851644790817238 0.011975844391856704 0.00985164479081724 -0.00022446233163166075 0.005677395307615366 0.011975844391856708 0.0056773953076153655 -0.0006781346559993816" id=257 pbc="T T T"
Si       0.00000000       0.00000000       0.00000000       0.00390338      -0.00799627       0.01762426
Si       3.54722672       2.04799398       1.44815046      -0.00390339       0.00799628      -0.01762425
2
Lattice="5.048475964112715 0.02254634129017131 -0.025171076390970274 -2.5006736736487416 4.4557061631140495 -0.025979973658616335 0.09099945917517402 0.12551128172481826 8.47836503076925" Properties=species:S:1:pos:R:3:dft_force:R:3 dft_energy=-8.424281329383255 volume=191.22933212996566 dft_virial="-2.4043182131115192e-05 1.5448166183608905e-05 7.577609229934124e-06 1.5448166183608905e-05 3.775292483928253e-05 2.084903059556671e-07 7.577609229934124e-06 2.0849030595566744e-07 -9.61074038501299e-05" id=2345 pbc="T T T"
Si       0.09386657      -0.02612724       0.12239673       0.00010888       0.00102964       0.00078093
Si       0.28781221       2.88224496       4.35189521      -0.00010888      -0.00102964      -0.00078092
2
Lattice="6.8397881190379906 0.0 0.0 3.3662352862102463 6.112736779575596 0.0 3.8681862291594684 1.7800596484353628 5.5514635541221224" Properties=species:S:1:pos:R:3:dft_force:R:3 dft_energy=-8.444000042406724 volume=232.1057163594453 dft_virial="-0.000804429033005424 0.010652934886451795 0.013602454965621054 0.010652934886451795 -0.000463895351448201 0.006016995071589755 0.013602454965621047 0.0060169950715897496 -0.0009098345204452176" id=296 pbc="T T T"
Si       0.00000000       0.00000000       0.00000000       0.00595826      -0.01371686       0.00736666
Si       3.45169925       1.99283616       1.40915020      -0.00595826       0.01371686      -0.00736666
4
Lattice="7.28440363753039 -0.07904079982701098 0.2233815016302129 -0.20161023151005683 7.296091499124896 0.24299757689975576 -0.20273915389690828 -0.18354730324508264 7.027358875969536" Properties=species:S:1:pos:R:3:dft_force:R:3 dft_energy=-16.840557699158072 volume=374.04328740306016 dft_virial="-0.000242643836061013 -4.831267991485944e-06 1.8936656207484045e-05 -4.831267991485944e-06 -0.0002114735432748503 -2.4941587320641954e-05 1.8936656207484038e-05 -2.494158732064194e-05 -0.000157409209651533" id=2294 pbc="T T T"
Si       0.09386192      -0.02612733       0.12239618       0.00919396      -0.00356006      -0.00051999
Si       3.95215748       3.62009403      -0.04424652      -0.00909592       0.00435388       0.00142715
Si       3.96276753       0.14502654       3.57562654      -0.01098222      -0.00554480       0.00049793
Si       0.10252747       3.57677039       3.57633005       0.01088419       0.00475097      -0.00140509
2
Lattice="6.723762714438217 0.0 0.0 3.513832345174142 5.839709149089664 0.0 3.7007262588996306 2.2697405996573896 5.710895967804549" Properties=species:S:1:pos:R:3:dft_force:R:3 dft_energy=-8.43728400945327 volume=224.23729444668396 dft_virial="-0.0010726132622603305 0.012362770080068043 0.013290745785795059 0.012362770080068045 -0.001156756258529826 0.008186430088276872 0.013290745785795059 0.00818643008827687 -0.000616500815265446" id=305 pbc="T T T"
Si       0.00000000       0.00000000       0.00000000       0.01051246       0.01463463      -0.01485838
Si       3.43223698       1.98160247       1.40120259      -0.01051246      -0.01463463       0.01485837
2
Lattice="7.064756234722439 0.0 0.0 3.407841386296132 6.054287550540921 0.0 3.49341763384981 1.8873148340907475 5.694523380660792" Properties=species:S:1:pos:R:3:dft_force:R:3 dft_energy=-8.45374235630567 volume=243.56652827877522 dft_virial="-0.0003683005583366115 0.010135266599242142 0.011077031623373403 0.010135266599242135 -0.0004974765947904611 0.005980882298336158 0.0110770316233734 0.00598088229833616 -0.0005551635422664948" id=250 pbc="T T T"
Si       0.00000000       0.00000000       0.00000000      -0.00543751       0.00749858       0.01205438
Si       3.54723170       2.04799779       1.44815146       0.00543751      -0.00749857      -0.01205438
2
Lattice="6.863353003812073 0.0 0.0 3.49624466413225 6.141262195426822 0.0 4.127262011667288 2.3496514482894395 5.4585324924914005" Properties=species:S:1:pos:R:3:dft_force:R:3 dft_energy=-8.439804735730286 volume=230.0752359071907 dft_virial="-0.000734298566490636 0.011200817000133817 0.014873694101295947 0.011200817000133813 -0.0003991426927712866 0.008334519414455102 0.014873694101295944 0.008334519414455102 -0.0010879563620574953" id=297 pbc="T T T"
Si       0.00000000       0.00000000       0.00000000       0.00455659      -0.02169112       0.00920856
Si       3.45169702       1.99283525       1.40914746      -0.00455659       0.02169112      -0.00920856
2
Lattice="7.270107103507147 0.0 0.0 4.019848089017434 6.33523124376291 0.0 3.9052966707948684 2.0104569472758613 6.107506017662631" Properties=species:S:1:pos:R:3:dft_force:R:3 dft_energy=-8.458364484895265 volume=281.29834970547853 dft_virial="-2.054514507680539e-05 0.009499036957270678 0.009518507299132149 0.009499036957270678 2.294793899477836e-05 0.004833598257473344 0.009518507299132149 0.004833598257473344 0.00019560853652870097" id=238 pbc="T T T"
Si       0.00000000       0.00000000       0.00000000       0.00071070      -0.00664121      -0.02146179
Si       3.61064498       2.08460791       1.47404046      -0.00071071       0.00664119       0.02146178
2
Lattice="6.853721069754855 0.0 0.0 3.64457871628475 6.0257942600338135 0.0 3.679138027651906 2.6421640448463872 5.615999591004217" Properties=species:S:1:pos:R:3:dft_force:R:3 dft_energy=-8.443596901429709 volume=231.93580217735794 dft_virial="-0.0007669536349220518 0.011777159916437383 0.012698679753248652 0.011777159916437387 -0.0006037733391654451 0.009230451537879273 0.01269867975324865 0.009230451537879268 -0.0006974543023346176" id=291 pbc="T T T"
Si       0.00000000       0.00000000       0.00000000       0.00873524      -0.00775331      -0.00891987
Si       3.45169647       1.99283860       1.40914976      -0.00873524       0.00775330       0.00891985
2
Lattice="4.972586169214949 -0.0017757378447883438 0.030680572907316708 -2.434780208696806 4.420841490902414 -0.10832138803215993 -0.17377862860548718 -0.37025543799525934 9.059066303742869" Properties=species:S:1:pos:R:3:dft_force:R:3 dft_energy=-8.423791029541839 volume=198.9581872485642 dft_virial="-2.0363549338754615e-05 4.081198795795508e-05 1.0231021679255839e-05 4.081198795795508e-05 6.803126780549147e-05 -2.1759239228799093e-05 1.023102167925584e-05 -2.1759239228799093e-05 7.995318823405017e-05" id=2333 pbc="T T T"
Si       0.09386162      -0.02612618       0.12239480      -0.00218545      -0.00038360      -0.00407047
Si       0.28781100       2.88224422       4.35189478       0.00218546       0.00038361       0.00407058
2
Lattice="6.677505998359627 0.0 0.0 3.4299209463362597 5.816560004062999 0.0 3.030835355254917 1.9662959374694817 5.6388558284815655" Properties=species:S:1:pos:R:3:dft_force:R:3 dft_energy=-8.432489728873142 volume=219.0138049950203 dft_virial="-0.0011878345080084097 0.012488822190639362 0.011246948273482226 0.012488822190639362 -0.0012876702294861656 0.007303318273091184 0.011246948273482226 0.007303318273091185 -0.0008226380415439661" id=302 pbc="T T T"
Si       0.00000000       0.00000000       0.00000000       0.01343507       0.01975300      -0.00537863
Si       3.43223386       1.98160147       1.40120492      -0.01343506      -0.01975299       0.00537863
2
Lattice="5.113416270104651 -0.11973225357131645 -0.03954584507577358 -2.413714014291009 4.3779449913323285 0.026670498481815838 -0.10414063354308288 -0.06573230910802778 8.66488971090725" Properties=species:S:1:pos:R:3:dft_force:R:3 dft_energy=-8.424306460447069 volume=191.45527664287965 dft_virial="-2.4789139271429556e-05 1.5064605872147252e-05 -6.780025881601359e-06 1.5064605872147259e-05 -4.6511929900390985e-05 4.922290013419001e-06 -6.780025881601359e-06 4.922290013418999e-06 -1.7799329261397017e-05" id=2370 pbc="T T T"
Si       0.09386402      -0.02612665       0.12239151      -0.00103902       0.00013636      -0.00295262
Si       0.28780952       2.88224780       4.35189124       0.00103902      -0.00013636       0.00295265
4
Lattice="7.6305007411593895 -0.08685408035914995 -0.07918171670412434 0.18069166250911567 7.482205296111616 -0.017077643960855548 0.031461086488570884 -0.26060260562747184 7.488480358475571" Properties=species:S:1:pos:R:3:dft_force:R:3 dft_energy=-16.83988730106892 volume=427.6455852153688 dft_virial="0.00017859829731097372 -8.616731330872699e-06 -1.1948021619273744e-05 -8.616731330872702e-06 0.00015612236801480588 -2.4755506083077995e-05 -1.1948021619273749e-05 -2.4755506083077995e-05 0.00017462411969319512" id=2280 pbc="T T T"
Si       0.09386404      -0.02613041       0.12239384       0.00159709      -0.00720845      -0.00239890
Si       3.95215753       3.62009858      -0.04424792      -0.00091434       0.00274359      -0.00290218
Si       3.96277014       0.14502144       3.57562253       0.00007332      -0.00073560       0.00268686
Si       0.10252705       3.57676998       3.57632954      -0.00075599       0.00520040       0.00261422
2
Lattice="5.026014547114584 0.057833820824929445 0.025909694744041502 -2.6147154327354953 4.341794114828491 -0.004144679617357963 -0.0763200099472973 0.012948063255233344 8.904760622550244" Properties=species:S:1:pos:R:3:dft_force:R:3 dft_energy=-8.424015760466062 volume=195.6735425944765 dft_virial="-6.405447633237043e-06 -2.069054298861221e-05 1.4394618501934654e-05 -2.0690542988612213e-05 4.347455313096105e-06 3.139341284969732e-06 1.4394618501934654e-05 3.139341284969733e-06 2.6436367736505193e-05" id=2362 pbc="T T T"
Si       0.09386752      -0.02612907       0.12239930      -0.00159533       0.00076660      -0.00546085
Si       0.28780984       2.88224732       4.35188871       0.00159533      -0.00076660       0.00546100
4
Lattice="7.29395068509009 -0.011824639971404571 0.0489678683550677 -0.22825992410724052 7.099405874998352 -0.1532702057626348 -0.09868592018708934 -0.12637144726222543 7.5161645249478966" Properties=species:S:1:pos:R:3:dft_force:R:3 dft_energy=-16.841337106634132 volume=389.08139351570253 dft_virial="-3.366234353133178e-05 -6.453783471432168e-05 2.173881812975092e-05 -6.453783471432168e-05 -4.34876443512798e-05 5.863132278083444e-06 2.173881812975092e-05 5.863132278083444e-06 -0.00011190897109891989" id=2305 pbc="T T T"
Si       0.09386763      -0.02612410       0.12239563       0.00867737       0.00022313      -0.00707118
Si       3.95215286       3.62009301      -0.04424894      -0.00931501      -0.00435967      -0.00660782
Si       3.96277082       0.14502605       3.57562320      -0.00812747       0.00112816       0.00708853
Si       0.10253042       3.57676892       3.57632990       0.00876509       0.00300838       0.00659051
2
Lattice="7.4370436196304635 0.0 0.0 3.7172311268721123 6.154032964577043 0.0 3.2661553906500655 2.0515301445946026 5.786184546335765" Properties=species:S:1:pos:R:3:dft_force:R:3 dft_energy=-8.457109297189488 volume=264.82100416598576 dft_virial="0.00012403091498165323 0.00968084090644678 0.008939967233962823 0.009680840906446777 -0.0002298647777378687 0.005765626004858536 0.00893996723396282 0.005765626004858537 -0.0003060436506905831" id=224 pbc="T T T"
Si       0.00000000       0.00000000       0.00000000      -0.01329973       0.00908449       0.01519239
Si       3.64867844       2.10656511       1.48956641       0.01329973      -0.00908448      -0.01519238
2
Lattice="5.126164551513988 -0.04213667848989676 -0.03683516523082664 -2.5415186865379344 4.436483509926393 -0.11255025494836998 -0.15744393047052826 0.1689768723173356 8.814388117811438" Properties=species:S:1:pos:R:3:dft_force:R:3 dft_energy=-8.424445862444463 volume=199.60097986548627 dft_virial="9.469227995266137e-05 1.0236262483178837e-05 -5.911444431021562e-06 1.0236262483178837e-05 7.632903914822842e-05 3.429212012834968e-05 -5.911444431021564e-06 3.4292120128349694e-05 9.13772037732043e-05" id=2341 pbc="T T T"
Si       0.09386570      -0.02612699       0.12239425      -0.00086745       0.00134374      -0.00174595
Si       0.28780691       2.88224842       4.35189500       0.00086745      -0.00134374       0.00174596
2
Lattice="6.7867926395989855 0.0 0.0 3.683027084016386 5.9083685683756935 0.0 3.4899405377804986 1.8887000033400985 5.463207674923725" Properties=species:S:1:pos:R:3:dft_force:R:3 dft_energy=-8.43423669692194 volume=219.06846697010468 dft_virial="-0.0010142743559278205 0.013157278467700045 0.013406846371212503 0.013157278467700052 -0.0009734431448024182 0.007206194783598865 0.013406846371212507 0.007206194783598862 -0.0012999086706151828" id=314 pbc="T T T"
Si       0.00000000       0.00000000       0.00000000      -0.00269241      -0.00595649       0.01516122
Si       3.41417735       1.97117657       1.39383364       0.00269240       0.00595649      -0.01516122
2
Lattice="6.7958406482836935 0.0 0.0 3.21843791627714 6.028247124543578 0.0 3.4501088905256365 2.461511896510537 5.555084269376905" Properties=species:S:1:pos:R:3:dft_force:R:3 dft_energy=-8.441243870180763 volume=227.57517529851765 dft_virial="-0.0008953148626188697 0.010610630380599012 0.012363514335563822 0.010610630380599012 -0.0006614685257427068 0.008833483730394782 0.012363514335563822 0.008833483730394782 -0.0009204279350320251" id=295 pbc="T T T"
Si       0.00000000       0.00000000       0.00000000       0.01308831      -0.00935947       0.00715739
Si       3.45169751       1.99283699       1.40914711      -0.01308829       0.00935947      -0.00715738
4
Lattice="7.4209376161511065 0.15752069114571057 0.13501452543294878 0.19004372812727616 7.4910392177236655 0.22297401998595984 -0.24265593331368465 -0.00717462869106043 7.457474639291251" Properties=species:S:1:pos:R:3:dft_force:R:3 dft_energy=-16.841485281707453 volume=414.59034398754045 dft_virial="9.548417455421319e-05 1.8695291674574955e-05 2.6212791002011957e-05 1.8695291674574955e-05 6.957255232794506e-05 2.683135498662866e-06 2.6212791002011957e-05 2.683135498662866e-06 0.0001210426872690513" id=2312 pbc="T T T"
Si       0.09386353      -0.02612431       0.12239372       0.00474088      -0.00480918      -0.00180041
Si       3.95215094       3.62009257      -0.04424442      -0.00576599       0.00518784      -0.00689048
Si       3.96277088       0.14502371       3.57562671      -0.00157339      -0.00319264       0.00551349
Si       0.10252537       3.57676686       3.57633549       0.00259856       0.00281400       0.00317746
2
Lattice="5.245730735953473 -0.019053371521413037 0.04855704189557406 -2.718636725767293 4.312611187669462 -0.14197884650359963 -0.1747227735718727 -0.2034037138831554 8.947660183476653" Properties=species:S:1:pos:R:3:dft_force:R:3 dft_energy=-8.424017791318331 volume=201.86909404040958 dft_virial="0.00010086528086658767 -4.0253338729409175e-05 2.6644810888974905e-05 -4.0253338729409196e-05 4.108754342363916e-05 -2.3702806883802806e-05 2.6644810888974905e-05 -2.3702806883802796e-05 0.00014478455562998987" id=2376 pbc="T T T"
Si       0.09386566      -0.02612575       0.12239879      -0.00245404       0.00044118      -0.00333351
Si       0.28780525       2.88224819       4.35189446       0.00245405      -0.00044118       0.00333361
4
Lattice="7.15330951901833 0.24299117072819326 -0.5223240236070283 0.12263224617942842 7.2622660440009765 -0.14850692429838058 -0.007589744828856974 0.024810630029959153 7.247832429244653" Properties=species:S:1:pos:R:3:dft_force:R:3 dft_energy=-16.836173217074123 volume=376.29963994722414 dft_virial="-0.00021096719187320317 4.036460323449001e-05 -9.280517018444086e-05 4.0364603234489983e-05 -0.00015707477171659782 4.206194357796911e-06 -9.280517018444082e-05 4.2061943577969126e-06 -0.00022157469615882795" id=2316 pbc="T T T"
Si       0.09386483      -0.02612461       0.12239372       0.01523725      -0.00566534       0.00203419
Si       3.95215587       3.62009431      -0.04424680      -0.01776709       0.00477257      -0.00878764
Si       3.96277033       0.14502635       3.57562395      -0.01349567       0.00008662      -0.00198564
Si       0.10253176       3.57677328       3.57633239       0.01602552       0.00080614       0.00873911
2
Lattice="5.093914617751953 -0.07349424578136064 -0.04092239717399598 -2.539714319342358 4.502543913284177 0.09103103649871652 -0.03273793663645803 -0.15193210959104855 9.086234801750306" Properties=species:S:1:pos:R:3:dft_force:R:3 dft_energy=-8.422691003285225 volume=206.75087540265392 dft_virial="0.00014325977264641074 -2.0575272351644382e-05 1.0954898720980364e-05 -2.0575272351644393e-05 0.0001457929417712936 -6.120696874314235e-06 1.0954898720980364e-05 -6.120696874314231e-06 7.97769025652539e-05" id=2364 pbc="T T T"
Si       0.09386512      -0.02612609       0.12239253      -0.00121822       0.00017251      -0.00677401
Si       0.28780716       2.88224740       4.35189272       0.00121822      -0.00017251       0.00677402
2
Lattice="6.848598022230995 0.0 0.0 4.051440530368928 6.440600482745918 0.0 3.734752667499642 2.2406444865165263 5.77138232160157" Properties=species:S:1:pos:R:3:dft_force:R:3 dft_energy=-8.450144239188536 volume=254.5703860504788 dft_virial="-0.0005825755132974641 0.011078565592177056 0.011206572311911253 0.011078565592177056 -9.487974911942893e-06 0.006505631615388988 0.011206572311911257 0.00650563161538899 -0.0003646174195683552" id=236 pbc="T T T"
Si       0.00000000       0.00000000       0.00000000       0.02606296      -0.01612763       0.00634791
Si       3.61065014       2.08460853       1.47403989      -0.02606296       0.01612763      -0.00634792
2
Lattice="4.947990060894658 -0.05932685564147377 -0.10360011517965617 -2.4762087312187604 4.4900573589431 -0.039018649281525486 0.22412682851102655 0.08362605019306421 8.646460156876836" Properties=species:S:1:pos:R:3:dft_force:R:3 dft_energy=-8.424322106962395 volume=190.96848323858174 dft_virial="-7.444389163640888e-05 2.0370218568244995e-05 -2.6586056718038908e-06 2.037021856824498e-05 3.6338595013336274e-07 -1.554830814288926e-05 -2.6586056718038882e-06 -1.554830814288926e-05 -2.4410531370962593e-05" id=2373 pbc="T T T"
Si       0.09386317      -0.02612590       0.12239312       0.00013597       0.00106617      -0.00131839
Si       0.28780570       2.88224819       4.35189300      -0.00013597      -0.00106617       0.00131837
4
Lattice="7.147621783533909 -0.01902357054042769 0.16765277901633283 -0.15564215219974256 7.167190993595561 -0.052983479678113725 0.0915367839014501 -0.058044544185086464 7.127046747845163" Properties=species:S:1:pos:R:3:dft_force:R:3 dft_energy=-16.834836479943586 volume=364.95552342455835 dft_virial="-0.0003398154732869993 -3.9522155104093366e-05 6.681506795151828e-05 -3.9522155104093366e-05 -0.00028376096015347846 -3.2567436972330744e-05 6.681506795151828e-05 -3.2567436972330744e-05 -0.00027807401076151647" id=2308 pbc="T T T"
Si       0.09386549      -0.02612809       0.12239917       0.01590126       0.00001281      -0.00348401
Si       3.95215120       3.62009679      -0.04424525      -0.01656167       0.00025140       0.00226640
Si       3.96276751       0.14502442       3.57562478      -0.01638488      -0.00350533       0.00388966
Si       0.10252868       3.57676822       3.57633243       0.01704528       0.00324113      -0.00267205
2
Lattice="6.981132074255499 0.0 0.0 3.3506715018478284 5.911040641115914 0.0 3.503440741214825 2.1200894083960256 5.874485778961152" Properties=species:S:1:pos:R:3:dft_force:R:3 dft_energy=-8.450891133608824 volume=242.4150933254257 dft_virial="-0.0005220653728542406 0.010276397678487393 0.010859147653772995 0.010276397678487393 -0.0008207745912335189 0.006687071245850822 0.010859147653772992 0.006687071245850819 -0.00021521748394935308" id=278 pbc="T T T"
Si       0.00000000       0.00000000       0.00000000      -0.00057769       0.01963223      -0.01341313
Si       3.49552109       2.01814080       1.42704184       0.00057769      -0.01963223       0.01341314
2
Lattice="6.7309209969983 0.0 0.0 3.4668896585123137 6.0170145924588025 0.0 3.285982397149639 1.8521659281727083 5.67104920274069" Properties=species:S:1:pos:R:3:dft_force:R:3 dft_energy=-8.443674861661988 volume=229.67777546739086 dft_virial="-0.0010439138647183857 0.011401116631738246 0.011374242606835396 0.011401116631738246 -0.0007102608135212613 0.006261604945965581 0.011374242606835396 0.006261604945965578 -0.0006546421261256683" id=307 pbc="T T T"
Si       0.00000000       0.00000000       0.00000000       0.01856350      -0.00273191      -0.00655804
Si       3.43223225       1.98159854       1.40120284      -0.01856350       0.00273191       0.00655805
4
Lattice="7.280273489906931 -0.08648528140866799 -0.12971945613996363 0.04078835889997627 7.2871704611385 -0.06793083537867864 0.1592654185847938 0.304366073749014 7.209722341386585" Properties=species:S:1:pos:R:3:dft_force:R:3 dft_energy=-16.841297114244885 volume=382.820307361164 dft_virial="-6.476505886765013e-05 -2.3091547294418525e-05 -9.48956010495364e-08 -2.3091547294418525e-05 -0.00013879796675711216 -6.2540682472608e-06 -9.489560104953671e-08 -6.2540682472608e-06 -0.00011903488377523425" id=2324 pbc="T T T"
Si       0.09386598      -0.02612439       0.12239577       0.00736641      -0.00285764      -0.00170606
Si       3.95215515       3.62009229      -0.04424665      -0.00684314       0.00402546      -0.00353427
Si       3.96276948       0.14502654       3.57562465      -0.00825036      -0.00455805       0.00247192
Si       0.10253165       3.57676760       3.57633377       0.00772711       0.00339026       0.00276844
2
Lattice="6.96628260636819 0.0 0.0 3.353279323899812 5.826758855957604 0.0 3.50651910507184 1.6476616566918323 5.5981813633751205" Properties=species:S:1:pos:R:3:dft_force:R:3 dft_energy=-8.441373068901777 volume=227.2349336662624 dft_virial="-0.0006713788609854121 0.011331150237911864 0.012413532350619292 0.011331150237911867 -0.0010673775073555746 0.005892838146086083 0.012413532350619292 0.005892838146086081 -0.0008295453579307693" id=298 pbc="T T T"
Si       0.00000000       0.00000000       0.00000000      -0.01572713       0.01762847      -0.00109336
Si       3.43223263       1.98160172       1.40120240       0.01572712      -0.01762846       0.00109336
4
Lattice="7.307942462981216 -0.11266898644078022 -0.07791665844725486 0.14750930008266816 7.302671468799059 0.0016851632716350304 0.017769264825207333 0.034174714306272246 7.539381832395878" Properties=species:S:1:pos:R:3:dft_force:R:3 dft_energy=-16.841511862965163 volume=402.4925780804741 dft_virial="1.078356696539365e-05 -2.1375730205761574e-05 -3.4201516186588103e-06 -2.137573020576158e-05 2.5150184087325632e-05 -2.5561629248892223e-06 -3.4201516186588103e-06 -2.5561629248892215e-06 2.801535938787878e-05" id=2287 pbc="T T T"
Si       0.09386351      -0.02612917       0.12239567       0.00619255      -0.00391036      -0.00426963
Si       3.95215084       3.62009372      -0.04424297      -0.00618063       0.00337256      -0.00592999
Si       3.96277263       0.14501972       3.57562170      -0.00638964      -0.00330892       0.00512637
Si       0.10252787       3.57677315       3.57633317       0.00637774       0.00384669       0.00507332
2
Lattice="7.0524900224474925 0.0 0.0 4.43731882556526 6.019478795325314 0.0 3.5568746371147433 2.3700699390660205 5.524960145224246" Properties=species:S:1:pos:R:3:dft_force:R:3 dft_energy=-8.441516290053913 volume=234.54734372016188 dft_virial="-0.0003729446331442508 0.01411477495004237 0.012173737062754595 0.014114774950042366 -0.0005263156935929528 0.008189964323972732 0.012173737062754594 0.008189964323972733 -0.0008685527701843936" id=286 pbc="T T T"
Si       0.00000000       0.00000000       0.00000000      -0.00623153      -0.02156779       0.00745497
Si       3.47275739       2.00499896       1.41774898       0.00623153       0.02156779      -0.00745496
2
Lattice="5.314995906948749 0.16780554447624757 -0.043693850611110883 -2.720740047635785 4.122482384072055 -0.04379272108195131 -0.22809517778369567 -0.30699874569953634 8.711146540369405" Properties=species:S:1:pos:R:3:dft_force:R:3 dft_energy=-8.424456004981458 volume=194.69948900714536 dft_virial="1.33761668934645e-05 2.0151105543509246e-05 -2.8455549037845183e-07 2.015110554350926e-05 -5.7891780136164035e-05 -1.6607356126958945e-05 -2.845554903784526e-07 -1.660735612695894e-05 3.678952729565572e-05" id=2343 pbc="T T T"
Si       0.09386453      -0.02612586       0.12239382      -0.00240167       0.00098900      -0.00168522
Si       0.28781162       2.88224632       4.35188833       0.00240168      -0.00098900       0.00168522
2
Lattice="5.038577219623961 -0.07331432495703503 -0.09488449042300841 -2.5292581245441013 4.4557924480089 0.05894070900516774 -0.004693815131912965 -0.06517070140105025 8.845107997022145" Properties=species:S:1:pos:R:3:dft_force:R:3 dft_energy=-8.424072006748236 volume=196.9418250882894 dft_virial="2.372446955526484e-05 -2.242355736948641e-05 1.6559743264724184e-05 -2.2423557369486416e-05 2.804810075102062e-05 7.355249721071024e-06 1.6559743264724184e-05 7.355249721071024e-06 5.056184942770154e-05" id=2367 pbc="T T T"
Si       0.09386665      -0.02612698       0.12239960      -0.00130992       0.00047079      -0.00460400
Si       0.28781149       2.88224634       4.35188933       0.00130992      -0.00047079       0.00460412
2
Lattice="7.694811711660042 0.0 0.0 3.574889396260801 6.289524437986586 0.0 3.5061600571081617 2.2459470580222263 5.806032339822709" Properties=species:S:1:pos:R:3:dft_force:R:3 dft_energy=-8.45630038785794 volume=280.99284195464793 dft_virial="0.00029502525871511924 0.008322232842616096 0.008877498391184294 0.008322232842616092 2.8631638111078155e-06 0.00582736182077139 0.008877498391184293 0.00582736182077139 -0.00022541468062729097" id=228 pbc="T T T"
Si       0.00000000       0.00000000       0.00000000      -0.01277387      -0.00547787       0.00983059
Si       3.64867708       2.10656345       1.48956662       0.01277390       0.00547786      -0.00983060
2
Lattice="6.700777975584393 0.0 0.0 3.2729130512717273 5.86392032019837 0.0 3.4325004224963735 2.3231215832258183 5.594137349468421" Properties=species:S:1:pos:R:3:dft_force:R:3 dft_energy=-8.434604448072873 volume=219.80947742039896 dft_virial="-0.0011891617920580467 0.011678561163172828 0.012839924739358357 0.011678561163172828 -0.0011094548589002326 0.008731525540122683 0.012839924739358357 0.008731525540122683 -0.0008986153998569693" id=322 pbc="T T T"
Si       0.00000000       0.00000000       0.00000000       0.01256380       0.00358314      -0.00801942
Si       3.39732672       1.96144586       1.38695447      -0.01256379      -0.00358314       0.00801942
2
Lattice="6.872701478950598 0.0 0.0 2.5101742339457753 5.88353378764586 0.0 2.9900493963071186 1.7221036379192152 5.493411167573619" Properties=species:S:1:pos:R:3:dft_force:R:3 dft_energy=-8.4329501186122 volume=222.1303179794047 dft_virial="-0.0007834944962044919 0.008424254114896192 0.010966297245653522 0.008424254114896192 -0.0008662892701520991 0.006258499554761496 0.010966297245653522 0.006258499554761496 -0.0010182557267306136" id=311 pbc="T T T"
Si       0.00000000       0.00000000       0.00000000       0.00121556      -0.00794526       0.00843750
Si       3.41418253       1.97117736       1.39383223      -0.00121556       0.00794526      -0.00843750
4
Lattice="7.3758600324825 0.17260741414796663 -0.1145488670922967 -0.0280593337998483 7.521984465671997 -0.04028433114801609 0.052551752847681724 -0.12720035672953126 7.199372424785578" Properties=species:S:1:pos:R:3:dft_force:R:3 dft_energy=-16.84215639538488 volume=399.47071372181284 dft_virial="2.4999360737378454e-05 1.185349742110726e-06 -1.8649903398353626e-05 1.1853497421107264e-06 -9.137118138235352e-06 -3.463607823638435e-05 -1.8649903398353633e-05 -3.463607823638435e-05 5.2152400184396476e-05" id=2281 pbc="T T T"
Si       0.09386245      -0.02612875       0.12239732       0.00526624      -0.00641106      -0.00135057
Si       3.95215256       3.62009478      -0.04424497      -0.00473566       0.00538855      -0.00158471
Si       3.96277280       0.14502047       3.57562461      -0.00484439      -0.00471811       0.00099723
Si       0.10253144       3.57677204       3.57632963       0.00431381       0.00574064       0.00193806
2
Lattice="5.113895372369027 0.07834564517480616 -0.06760064353292278 -2.5540187524208027 4.361532852220782 -0.0420756214388101 -0.08163562056325713 -0.10732945189208264 8.77862588238239" Properties=species:S:1:pos:R:3:dft_force:R:3 dft_energy=-8.424468163310726 volume=197.4933267937983 dft_virial="7.669774029325186e-05 3.726974168276169e-05 1.4339633646019652e-06 3.726974168276167e-05 4.490119165492503e-05 4.005243544347607e-06 1.4339633646019643e-06 4.005243544347607e-06 5.2262359553189206e-05" id=2334 pbc="T T T"
Si       0.09386338      -0.02612902       0.12239272      -0.00150554       0.00063012      -0.00226370
Si       0.28781018       2.88224577       4.35188916       0.00150554      -0.00063012       0.00226372
2
Lattice="5.023228013662994 -0.022841875558801534 0.09128873845033172 -2.4910819718607176 4.337492436764698 0.08266461423263836 -0.06015873197879529 -0.08594429061371012 8.754986712474347" Properties=species:S:1:pos:R:3:dft_force:R:3 dft_energy=-8.423519608522449 volume=190.33651894744193 dft_virial="-7.696445933661947e-05 1.2944975431269514e-05 6.9059672420736326e-06 1.2944975431269514e-05 -8.807063709078187e-05 2.344885359040401e-06 6.905967242073631e-06 2.3448853590404015e-06 -7.335157139921437e-05" id=2340 pbc="T T T"
Si       0.09386298      -0.02612571       0.12239299      -0.00107646       0.00053065      -0.00855339
Si       0.28780960       2.88224727       4.35189330       0.00107646      -0.00053065       0.00855352
2
Lattice="4.958487829667656 -0.07428643787006502 0.06174047053962955 -2.400145176003836 4.411779989573177 0.02428825303732885 0.06023794929793959 0.11429158088042889 8.730473865487108" Properties=species:S:1:pos:R:3:dft_force:R:3 dft_energy=-8.42375823170153 volume=189.38188253191433 dft_virial="-0.00012919252723829578 2.5966263202386634e-06 3.913345203006547e-06 2.5966263202386626e-06 -5.251189133121185e-05 1.181508749716761e-05 3.913345203006546e-06 1.1815087497167607e-05 -5.19895047423044e-05" id=2356 pbc="T T T"
Si       0.09386510      -0.02612724       0.12239552      -0.00012734       0.00104344      -0.00539238
Si       0.28781041       2.88224713       4.35189321       0.00012734      -0.00104344       0.00539248
4
Lattice="7.0957474219128605 0.020299608106081238 0.054461094329481104 0.2659897801717713 7.236163313733305 -0.23072272857642032 0.3649944593615625 0.05754637458411262 7.2440514652145005" Properties=species:S:1:pos:R:3:dft_force:R:3 dft_energy=-16.836343882571544 volume=371.8633552408757 dft_virial="-0.0001948550405651988 2.0155424942599276e-05 5.325410777774715e-05 2.015542494259928e-05 -0.00023627923531818648 3.947009508801643e-05 5.325410777774715e-05 3.9470095088016427e-05 -0.0002838080495401376" id=2303 pbc="T T T"
Si       0.09386593      -0.02612425       0.12239835       0.01620440      -0.00403828      -0.00650266
Si       3.95215303       3.62009182      -0.04424457      -0.01562885       0.00260327       0.00266599
Si       3.96276848       0.14502463       3.57562299      -0.01613380      -0.00214841       0.00459595
Si       0.10252581       3.57676741       3.57633483       0.01555825       0.00358343      -0.00075926
2
Lattice="6.855816776027066 0.0 0.0 4.152986853401818 6.004750269909981 0.0 2.8515513686332965 2.3892752256705925 5.634131513170001" Properties=species:S:1:pos:R:3:dft_force:R:3 dft_energy=-8.441624221181335 volume=231.9429267270946 dft_virial="-0.0006580173924816249 0.013498041931163145 0.009639326030624923 0.013498041931163145 -0.0006785410406312099 0.00812413253898444 0.009639326030624921 0.008124132538984438 -0.0006161436250466821" id=269 pbc="T T T"
Si       0.00000000       0.00000000       0.00000000       0.01130282      -0.00044383      -0.00047466
Si       3.49552241       2.01813936       1.42704101      -0.01130282       0.00044383       0.00047466
2
Lattice="4.873748126074828 0.1845685490373529 -0.0868898906692116 -2.309576366515203 4.2456762379584605 0.22613827189533947 -0.05390969114357655 -0.14726964501554313 9.058097006521763" Properties=species:S:1:pos:R:3:dft_force:R:3 dft_energy=-8.420681282148378 volume=191.40523549432905 dft_virial="-0.00023259157868410466 9.639722534461801e-05 -7.82718868008535e-07 9.639722534461805e-05 -0.00016532627299976243 1.625126048397151e-05 -7.827188680085344e-07 1.625126048397151e-05 -4.018487631285031e-05" id=2346 pbc="T T T"
Si       0.09386699      -0.02612939       0.12239629      -0.00078649      -0.00024359      -0.01152214
Si       0.28781115       2.88224683       4.35188773       0.00078649       0.00024359       0.01152214
2
Lattice="7.085265432353002 0.0 0.0 3.70633496603752 5.9431773235913 0.0 3.471829402602085 1.902245560201416 5.740186722736248" Properties=species:S:1:pos:R:3:dft_force:R:3 dft_energy=-8.451971325986994 volume=241.71345869994434 dft_virial="-0.00038958364201336764 0.011380980856122226 0.010975696227691187 0.011380980856122226 -0.0007123761425186604 0.006104017272604187 0.010975696227691187 0.006104017272604187 -0.00044679563824878113" id=276 pbc="T T T"
Si       0.00000000       0.00000000       0.00000000      -0.01227161       0.01214408      -0.00463051
Si       3.49552209       2.01813980       1.42703912       0.01227160      -0.01214407       0.00463051
2
Lattice="5.074595720812769 0.01670935523642723 0.047026118070230986 -2.529468092013808 4.505680688575705 0.07338677705665318 -0.2944636442943175 0.012997233928996106 8.682115679471627" Properties=species:S:1:pos:R:3:dft_force:R:3 dft_energy=-8.42418679666006 volume=198.9349042385384 dft_virial="7.868783799142885e-05 -7.053612810539114e-06 1.1328018583477896e-06 -7.053612810539118e-06 7.056265546653564e-05 2.0685683466741657e-05 1.132801858347792e-06 2.0685683466741657e-05 4.932966046147765e-05" id=2366 pbc="T T T"
Si       0.09386529      -0.02612722       0.12239879      -0.00116340       0.00101868      -0.00481708
Si       0.28780818       2.88224681       4.35189296       0.00116341      -0.00101868       0.00481718
4
Lattice="7.195905382059249 -0.10952451996392544 0.2784081342970107 0.11917264897403101 7.475083636443829 0.06375571227345296 -0.2832986699184973 -0.06479113101165791 7.456657257153306" Properties=species:S:1:pos:R:3:dft_force:R:3 dft_energy=-16.839929426051466 volume=401.81001321566816 dft_virial="-2.3151485075975216e-05 -3.0754279489930545e-05 6.74923738263373e-05 -3.075427948993053e-05 2.5475765924116167e-06 -2.3512437525098075e-05 6.74923738263373e-05 -2.351243752509809e-05 -2.070298317918753e-06" id=2320 pbc="T T T"
Si       0.09386784      -0.02612654       0.12239675       0.01017887      -0.00626207      -0.00797174
Si       3.95215542       3.62009529      -0.04424280      -0.00831640       0.00402294      -0.00558848
Si       3.96277320       0.14502115       3.57562399      -0.01143778      -0.00548705       0.00926928
Si       0.10253136       3.57677083       3.57633515       0.00957531       0.00772607       0.00429102
2
Lattice="4.992606986025864 -0.09655147452932454 -0.17218706346880489 -2.446895923183187 4.5284966748866 0.2539881484515342 0.08350601478962798 0.14253393465544723 8.681152391579598" Properties=species:S:1:pos:R:3:dft_force:R:3 dft_energy=-8.423600450704384 volume=194.1636526463143 dft_virial="-6.869576044391516e-05 4.1314377634566505e-05 -1.9675196409176694e-05 4.131437763456649e-05 8.483174223160715e-05 2.9329041492322165e-05 -1.967519640917669e-05 2.9329041492322165e-05 -5.239524067758349e-05" id=2352 pbc="T T T"
Si       0.09386385      -0.02612529       0.12239372       0.00067722       0.00178756      -0.00714144
Si       0.28781202       2.88224396       4.35188845      -0.00067722      -0.00178757       0.00714156
2
Lattice="6.664963886070486 0.0 0.0 3.2104424850438487 5.86409984418021 0.0 2.694817483856835 2.1785424168829497 5.551233007534917" Properties=species:S:1:pos:R:3:dft_force:R:3 dft_energy=-8.429417732722865 volume=216.96446683940766 dft_virial="-0.0011823705903658435 0.011643032195752015 0.010249346344458255 0.011643032195752015 -0.0011217436388427568 0.008257763656734023 0.010249346344458255 0.008257763656734023 -0.0009798060076837809" id=303 pbc="T T T"
Si       0.00000000       0.00000000       0.00000000       0.02085679       0.00923140      -0.00294417
Si       3.43223390       1.98160068       1.40120339      -0.02085679      -0.00923140       0.00294417
2
Lattice="7.071328702183886 0.0 0.0 3.424060905623795 6.301800098892155 0.0 3.5740635859443395 2.1615216536784456 5.748705608106062" Properties=species:S:1:pos:R:3:dft_force:R:3 dft_energy=-8.457473946440231 volume=256.1743936887414 dft_virial="-0.0002845600974307605 0.00917841445777205 0.01053184098157349 0.009178414457772047 -8.385888047063631e-05 0.0063058298790655215 0.01053184098157349 0.006305829879065525 -0.00040364210158822585" id=234 pbc="T T T"
Si       0.00000000       0.00000000       0.00000000       0.00818786      -0.00712181       0.01580700
Si       3.61064634       2.08460704       1.47403710      -0.00818785       0.00712181      -0.01580700
2
Lattice="5.084856328957128 0.08285919933169107 0.022618528828132013 -2.514543318540433 4.179916697896977 0.21856869044423224 0.157899656822743 -0.12406830575331526 8.385535995451997" Properties=species:S:1:pos:R:3:dft_force:R:3 dft_energy=-8.421840228116126 volume=180.10852335592412 dft_virial="-0.00022870240191381203 6.871253977844154e-05 3.525470292400059e-05 6.871253977844154e-05 -0.00024928468841626557 7.925197769085515e-05 3.525470292400058e-05 7.925197769085515e-05 -0.0002990761025235545" id=2336 pbc="T T T"
Si       0.09386610      -0.02612783       0.12239633      -0.00002823      -0.00001130      -0.00741273
Si       0.28780950       2.88224511       4.35188829       0.00002823       0.00001131       0.00741277
4
Lattice="7.413541946195249 -0.08671998539334651 0.0683951410874992 -0.28953701490385064 7.435276102094317 0.05098709741101407 0.004613180518175184 -0.08532576435585885 7.14657100132231" Properties=species:S:1:pos:R:3:dft_force:R:3 dft_energy=-16.843098697993593 volume=393.7835015189699 dft_virial="-3.5347832583119546e-05 -1.7691508510311964e-05 1.8216224532153066e-05 -1.7691508510311957e-05 -3.903200899016409e-05 -3.939959701504909e-05 1.821622453215306e-05 -3.939959701504909e-05 2.797289223070403e-05" id=2321 pbc="T T T"
Si       0.09386640      -0.02612405       0.12239401       0.00345802      -0.00535604      -0.00036932
Si       3.95215610       3.62009197      -0.04424629      -0.00464849       0.00454356      -0.00142129
Si       3.96277173       0.14502197       3.57562733      -0.00657936      -0.00487332       0.00108760
Si       0.10252919       3.57676977       3.57633651       0.00776985       0.00568577       0.00070300
4
Lattice="7.24105443516989 0.1041700187843208 0.16046444981086885 0.1042187170265524 7.2244952375713245 -0.23427620737568913 0.2182792410937233 -0.2712831865057667 7.415602503561541" Properties=species:S:1:pos:R:3:dft_force:R:3 dft_energy=-16.841231948809355 volume=387.12851823649 dft_virial="-5.4105866441639984e-05 -1.08427766386321e-05 3.095205247041763e-05 -1.0842776638632105e-05 -3.110256910810722e-05 -1.872930965932121e-05 3.095205247041764e-05 -1.8729309659321205e-05 -0.00017327169374484875" id=2288 pbc="T T T"
Si       0.09386141      -0.02612556       0.12239282       0.01184383      -0.00435483      -0.00690981
Si       3.95215695       3.62009395      -0.04424531      -0.00777424       0.00082959      -0.00197671
Si       3.96277243       0.14502380       3.57562633      -0.01135328      -0.00056730       0.00569014
Si       0.10253104       3.57676684       3.57633502       0.00728367       0.00409252       0.00319641
2
Lattice="6.773352907400646 0.0 0.0 3.390013710036412 6.118001556558803 0.0 3.451135011811308 1.713798291601485 5.595809757088714" Properties=species:S:1:pos:R:3:dft_force:R:3 dft_energy=-8.444620623681983 volume=231.8869072478495 dft_virial="-0.0009583280889919223 0.01076367386022392 0.011977168876237416 0.010763673860223923 -0.0004764865692015634 0.005716765226396263 0.011977168876237416 0.00571676522639626 -0.0008122917250810701" id=301 pbc="T T T"
Si       0.00000000       0.00000000       0.00000000       0.01455853      -0.01330638       0.00158787
Si       3.43223046       1.98159977       1.40120195      -0.01455853       0.01330638      -0.00158787
2
Lattice="7.186877895800255 0.0 0.0 4.102667226155282 6.289955295543001 0.0 3.7364874360820486 2.2161593051197506 6.215980076668401" Properties=species:S:1:pos:R:3:dft_force:R:3 dft_energy=-8.456457818497597 volume=280.9942538243384 dft_virial="-0.00010076511698721336 0.009841249242222657 0.008941008762187055 0.009841249242222655 -5.0242008229382756e-05 0.0053116309840395585 0.008941008762187057 0.00531163098403956 0.00029178864359600415" id=233 pbc="T T T"
Si       0.00000000       0.00000000       0.00000000       0.00642906      -0.00414116      -0.02385433
Si       3.61064211       2.08460572       1.47403887      -0.00642906       0.00414114       0.02385433
2
Lattice="6.8346858585015005 0.0 0.0 3.64318976758315 5.8938252361205725 0.0 3.2628767158238396 1.9250375469905272 5.595133235136099" Properties=species:S:1:pos:R:3:dft_force:R:3 dft_energy=-8.441136800766252 volume=225.38564118217718 dft_virial="-0.0009183639832293283 0.012450806369391738 0.0116408544642723 0.012450806369391741 -0.0009497323812576731 0.006897441809403727 0.011640854464272302 0.006897441809403728 -0.0008430911864595564" id=326 pbc="T T T"
Si       0.00000000       0.00000000       0.00000000      -0.00094850      -0.00006875      -0.00694823
Si       3.39732971       1.96144955       1.38695519       0.00094850       0.00006875       0.00694823
2
Lattice="7.104990393641846 0.0 0.0 3.8411725942079427 6.323291954107524 0.0 3.703305735059745 2.070846925040527 6.233667913194898" Properties=species:S:1:pos:R:3:dft_force:R:3 dft_energy=-8.457269523091123 volume=280.0595531906717 dft_virial="-0.00020645077354634165 0.009193421835918482 0.008919665509830966 0.009193421835918482 -2.4426627059732097e-05 0.00491582106833342 0.008919665509830966 0.004915821068333422 0.00029496137743190674" id=239 pbc="T T T"
Si       0.00000000       0.00000000       0.00000000       0.01220328      -0.00037983      -0.01950045
Si       3.61064490       2.08460468       1.47403804      -0.01220330       0.00037981       0.01950047
4
Lattice="7.226742329803379 -0.021167578212383104 0.15286640908432475 0.07642611806919504 7.168655380164056 0.1277510985112922 -0.15789419551424283 -0.26542238990285233 7.3477320071380205" Properties=species:S:1:pos:R:3:dft_force:R:3 dft_energy=-16.840589484523285 volume=381.08407523441326 dft_virial="-0.0001429982856114504 5.693607892393571e-06 3.3894520427634673e-05 5.6936078923935716e-06 -9.315636488146567e-05 7.586340875791644e-06 3.3894520427634673e-05 7.5863408757916445e-06 -0.00017595804665609079" id=2292 pbc="T T T"
Si       0.09386317      -0.02612881       0.12239291       0.00954970      -0.00326617      -0.00637382
Si       3.95215154       3.62009779      -0.04424465      -0.00857608       0.00113857      -0.00397663
Si       3.96276740       0.14502367       3.57562541      -0.01022070      -0.00156740       0.00582232
Si       0.10253149       3.57676897       3.57632958       0.00924711       0.00369499       0.00452815
2
Lattice="6.959972810838065 0.0 0.0 3.2436582011363955 6.098894535712712 0.0 3.4834115340199165 2.007348347800852 5.482101156717733" Properties=species:S:1:pos:R:3:dft_force:R:3 dft_energy=-8.444653247930523 volume=232.70499818793706 dft_virial="-0.0006017827781667266 0.010161033679933982 0.012233600180444781 0.010161033679933984 -0.0004603189113711886 0.006990166083765561 0.012233600180444785 0.006990166083765562 -0.0011452777265587514" id=280 pbc="T T T"
Si       0.00000000       0.00000000       0.00000000      -0.00490031      -0.01568305       0.02695476
Si       3.47275684       2.00499596       1.41774811       0.00490031       0.01568305      -0.02695475
2
Lattice="7.002170395200958 0.0 0.0 3.624060070023563 5.6972748218982465 0.0 3.4947933544685372 1.6266441227337443 5.560398179239352" Properties=species:S:1:pos:R:3:dft_force:R:3 dft_energy=-8.433157166633785 volume=221.82257202668728 dft_virial="-0.0007013877605500686 0.01296724298469991 0.012829030507058825 0.012967242984699916 -0.0014244175650997158 0.006179276262941003 0.012829030507058834 0.006179276262941004 -0.0009524674568813068" id=318 pbc="T T T"
Si       0.00000000       0.00000000       0.00000000      -0.02761236       0.02880189      -0.00625903
Si       3.39731986       1.96144391       1.38695236       0.02761236      -0.02880188       0.00625902
2
Lattice="4.9698425136491275 -0.09043898530387126 0.047950761063010376 -2.5409056215885832 4.50316534972026 -0.07032659236495671 0.29239991218813616 0.12003453416221159 8.905262269247288" Properties=species:S:1:pos:R:3:dft_force:R:3 dft_energy=-8.423707103197442 volume=197.21961943574013 dft_virial="-2.4006994362982843e-05 -1.222666783678641e-05 4.556129401107713e-05 -1.2226667836786414e-05 5.751850334947281e-05 -1.1788278865185084e-05 4.556129401107713e-05 -1.1788278865185085e-05 6.457974925340681e-05" id=2358 pbc="T T T"
Si       0.09386634      -0.02612767       0.12239873       0.00035751       0.00072652      -0.00490400
Si       0.28781009       2.88224591       4.35188943      -0.00035752      -0.00072652       0.00490413
2
Lattice="7.025710713535421 0.0 0.0 3.702693463795366 5.90032778371541 0.0 3.3722937481657964 2.2371352651030962 5.680271066228864" Properties=species:S:1:pos:R:3:dft_force:R:3 dft_energy=-8.447835273269044 volume=235.46993475942642 dft_virial="-0.0004752149553283262 0.011902927661981382 0.011188610585984995 0.011902927661981378 -0.0008575080444461285 0.007630730355784653 0.011188610585984991 0.007630730355784653 -0.0006212894061190588" id=272 pbc="T T T"
Si       0.00000000       0.00000000       0.00000000      -0.01042221       0.01280394       0.00166980
Si       3.49552642       2.01814341       1.42704314       0.01042221      -0.01280395      -0.00166980
2
Lattice="6.8973888610427085 0.0 0.0 2.6354385095688437 5.869519578705636 0.0 3.2443158258277656 1.8800393885109385 5.45693945336834" Properties=species:S:1:pos:R:3:dft_force:R:3 dft_energy=-8.433021951480955 volume=220.920695663171 dft_virial="-0.000767978352683562 0.00900633074314717 0.012170874094050111 0.00900633074314717 -0.0009450957748833775 0.007039433067316838 0.012170874094050108 0.0070394330673168365 -0.0012170156366852884" id=313 pbc="T T T"
Si       0.00000000       0.00000000       0.00000000      -0.00728269      -0.00726223       0.01739162
Si       3.41418081       1.97117667       1.39383330       0.00728269       0.00726223      -0.01739162
2
Lattice="7.14579902930314 0.0 0.0 3.711030935457215 5.9885855526399325 0.0 3.5969443898613083 1.663285912290238 5.8566203081789405" Properties=species:S:1:pos:R:3:dft_force:R:3 dft_energy=-8.454429382616564 volume=250.623693012196 dft_virial="-0.0002936262876382744 0.010716563502140992 0.010602103872946127 0.010716563502140992 -0.0005516280882663999 0.00489856913475282 0.010602103872946127 0.004898569134752821 -0.00018064043409809688" id=277 pbc="T T T"
Si       0.00000000       0.00000000       0.00000000      -0.01109587       0.01188311      -0.01655716
Si       3.49552504       2.01814507       1.42704167       0.01109586      -0.01188310       0.01655714
2
Lattice="7.273397116690121 0.0 0.0 3.599726066716757 6.34717242314442 0.0 3.687207158204058 1.9749830084643862 5.814638152594254" Properties=species:S:1:pos:R:3:dft_force:R:3 dft_energy=-8.45984863209642 volume=268.4357102050629 dft_virial="-8.909119154320928e-05 0.0088963841248636 0.009997533919913601 0.0088963841248636 3.5665859379908434e-05 0.00529382922740063 0.009997533919913601 0.00529382922740063 -0.00019972476909843818" id=251 pbc="T T T"
Si       0.00000000       0.00000000       0.00000000      -0.00296589      -0.01390296      -0.00693462
Si       3.54722664       2.04799069       1.44814726       0.00296589       0.01390295       0.00693460
2
Lattice="7.313449861901564 0.0 0.0 4.023712578942294 6.296775317126775 0.0 2.9172665946171574 2.3284789567891324 6.058989189138989" Properties=species:S:1:pos:R:3:dft_force:R:3 dft_energy=-8.45515649300974 volume=279.0234234720421 dft_virial="3.0234450738369218e-05 0.009564454231061963 0.0069354355378522855 0.009564454231061965 -1.63590187201121e-05 0.005737557825831422 0.006935435537852287 0.005737557825831421 0.00014886380721651764" id=246 pbc="T T T"
Si       0.00000000       0.00000000       0.00000000       0.00417971      -0.00531220      -0.01705651
Si       3.57710867       2.06524351       1.46034970      -0.00417971       0.00531219       0.01705651
2
Lattice="6.838926403925161 0.0 0.0 3.2795629975042853 5.932466355916921 0.0 4.531950640708145 1.7052926343145443 5.361512063526989" Properties=species:S:1:pos:R:3:dft_force:R:3 dft_energy=-8.425949224521426 volume=217.525663287076 dft_virial="-0.0008637637288810967 0.011550490694393631 0.017883444414466286 0.011550490694393631 -0.0008506554766925636 0.006497293249541578 0.017883444414466286 0.006497293249541575 -0.001205996070730563" id=323 pbc="T T T"
Si       0.00000000       0.00000000       0.00000000      -0.00042173      -0.00801035       0.00609666
Si       3.39732718       1.96144425       1.38695347       0.00042173       0.00801035      -0.00609667
2
Lattice="6.9856825347635985 0.0 0.0 3.3099308963270215 5.947784475883137 0.0 3.6095299658513156 2.0765387801279 5.80970974686123" Properties=species:S:1:pos:R:3:dft_force:R:3 dft_energy=-8.451587318293445 volume=241.38957149223742 dft_virial="-0.0004957149209756191 0.010156534028151951 0.011421654345639572 0.010156534028151948 -0.000747065629911643 0.006624873251814499 0.011421654345639569 0.0066248732518145 -0.0003355780419354155" id=266 pbc="T T T"
Si       0.00000000       0.00000000       0.00000000      -0.00071875       0.01660034      -0.00433750
Si       3.52022964       2.03240211       1.43712466       0.00071875      -0.01660034       0.00433750
2
Lattice="6.922106478752814 0.0 0.0 3.4920551413139544 5.963626049985875 0.0 3.436967735054989 2.5834786000461336 5.7491043403183575" Properties=species:S:1:pos:R:3:dft_force:R:3 dft_energy=-8.447575199909418 volume=237.3279398784161 dft_virial="-0.0006528939586228427 0.010942560200685084 0.011163705356272407 0.01094256020068508 -0.0006947376958599605 0.008607468154180628 0.011163705356272403 0.008607468154180627 -0.0004187962365182276" id=294 pbc="T T T"
Si       0.00000000       0.00000000       0.00000000       0.00548171       0.00243584      -0.01726199
Si       3.45170295       1.99284260       1.40915146      -0.00548171      -0.00243584       0.01726197
2
Lattice="5.035897058855927 0.17414992199445364 0.023995137618138148 -2.5211421287840583 4.428009203195859 -0.04208344490496605 -0.20360595237301288 -0.08827037339777323 8.625299570651116" Properties=species:S:1:pos:R:3:dft_force:R:3 dft_energy=-8.424591070104164 volume=196.13229643697184 dft_virial="3.987920014404985e-05 3.1828350244355615e-06 1.0902512081125674e-05 3.1828350244355683e-06 8.817198917802003e-05 8.24405709723815e-06 1.0902512081125677e-05 8.24405709723815e-06 -3.0479313508129162e-06" id=2374 pbc="T T T"
Si       0.09386551      -0.02612953       0.12239505      -0.00119283       0.00051193      -0.00129929
Si       0.28780999       2.88224642       4.35188977       0.00119283      -0.00051193       0.00129928
2
Lattice="6.979283922105615 0.0 0.0 3.593253754739914 6.204227869899352 0.0 2.538676973083506 2.7223942571934985 5.526817746004753" Properties=species:S:1:pos:R:3:dft_force:R:3 dft_energy=-8.443529229915294 volume=239.31711005664542 dft_virial="-0.00043231621202518487 0.010557123411682726 0.008298028768707695 0.010557123411682728 -0.00022064558705968526 0.008998331191454267 0.008298028768707697 0.008998331191454267 -0.0006887864699524545" id=270 pbc="T T T"
Si       0.00000000       0.00000000       0.00000000       0.01324822      -0.01199792       0.00269150
Si       3.49552560       2.01813982       1.42704093      -0.01324823       0.01199792      -0.00269150
2
Lattice="6.873143674863759 0.0 0.0 3.3094811415093606 6.0845250582610575 0.0 3.482942881941009 2.201351411207183 5.61499614643204" Properties=species:S:1:pos:R:3:dft_force:R:3 dft_energy=-8.448248920966474 volume=234.81809961320965 dft_virial="-0.0007275054258236411 0.01033797125558547 0.011826026045241758 0.010337971255585473 -0.0005117499299220439 0.007433803700277775 0.011826026045241762 0.007433803700277775 -0.0007545567006219559" id=279 pbc="T T T"
Si       0.00000000       0.00000000       0.00000000       0.00924294      -0.00947687       0.00652573
Si       3.47275522       2.00499541       1.41774722      -0.00924294       0.00947687      -0.00652573
2
Lattice="7.245946955003807 0.0 0.0 4.160972836004486 6.216898483564968 0.0 3.4910460275634048 2.3523273004819094 5.701878194737835" Properties=species:S:1:pos:R:3:dft_force:R:3 dft_energy=-8.454559223344063 volume=256.8543124614261 dft_virial="-8.951078316257718e-05 0.011305496480570517 0.010177158456149638 0.011305496480570512 -0.00015215585443178635 0.0069708333682676335 0.010177158456149632 0.006970833368267634 -0.00042151284725818784" id=259 pbc="T T T"
Si       0.00000000       0.00000000       0.00000000      -0.00576543      -0.01792767      -0.00043105
Si       3.54723373       2.04799723       1.44815163       0.00576543       0.01792766       0.00043103
2
Lattice="4.84102201912391 -0.16786236854081504 0.020762534314830813 -2.459016210806789 4.446646494819152 -0.10142974582826222 -0.059168402105923903 -0.12385089276267708 8.740961316355465" Properties=species:S:1:pos:R:3:dft_force:R:3 dft_energy=-8.422909211114638 volume=184.50257762435263 dft_virial="-0.0002359775831963903 2.3702954807670003e-06 2.0401354839484774e-05 2.370295480767e-06 -0.00019293030855902722 -3.25399542755678e-05 2.040135483948476e-05 -3.253995427556779e-05 -9.748553945895501e-05" id=2347 pbc="T T T"
Si       0.09386285      -0.02612766       0.12239805      -0.00200763       0.00001277      -0.00340202
Si       0.28780899       2.88224625       4.35189198       0.00200761      -0.00001277       0.00340202
2
Lattice="6.905692317634314 0.0 0.0 3.2886979335907265 6.2736280618262334 0.0 3.2810709989517366 2.206147536111483 5.973239086781846" Properties=species:S:1:pos:R:3:dft_force:R:3 dft_energy=-8.454687066409058 volume=258.7830876783101 dft_virial="-0.0005067035032610744 0.008756175049690137 0.009153471752009186 0.008756175049690137 -0.0001511955474927167 0.006078011270651715 0.009153471752009189 0.006078011270651717 -1.562579190614395e-05" id=245 pbc="T T T"
Si       0.00000000       0.00000000       0.00000000       0.03084506      -0.00090854      -0.00651738
Si       3.57710572       2.06524145       1.46034943      -0.03084506       0.00090853       0.00651738
4
Lattice="7.365076650503025 0.04019649667774348 0.2906895021754761 -0.18656464784553387 7.264081938525913 -0.19454673761238567 0.14199303834679555 0.19437949685035627 7.4235219300101" Properties=species:S:1:pos:R:3:dft_force:R:3 dft_energy=-16.841753358837824 volume=397.1849898249633 dft_virial="-3.0553679619957076e-05 -2.3857824101416223e-05 3.978512282858055e-05 -2.385782410141623e-05 4.451798210129227e-05 -2.7045271148564318e-05 3.978512282858056e-05 -2.7045271148564318e-05 -2.6047822555536142e-05" id=2304 pbc="T T T"
Si       0.09386117      -0.02612425       0.12239278       0.00858975      -0.00190745      -0.00537991
Si       3.95215239       3.62009730      -0.04424981      -0.00509302       0.00229674      -0.00463826
Si       3.96277110       0.14502223       3.57562346      -0.00995695      -0.00219409       0.00649756
Si       0.10252673       3.57677217       3.57633528       0.00646023       0.00180481       0.00352060
2
Lattice="6.898033257651205 0.0 0.0 2.934665303046587 6.070397465753356 0.0 3.6356988932251335 2.356000928068182 5.793486448081318" Properties=species:S:1:pos:R:3:dft_force:R:3 dft_energy=-8.449954984485002 volume=242.59531372056395 dft_virial="-0.0005833541784541133 0.008709161105946371 0.011467224947312128 0.008709161105946371 -0.0004973817992654048 0.007400245373887307 0.011467224947312128 0.007400245373887307 -0.0003144445589646606" id=264 pbc="T T T"
Si       0.00000000       0.00000000       0.00000000       0.01808038      -0.00080467      -0.00336335
Si       3.52022642       2.03240521       1.43712646      -0.01808036       0.00080467       0.00336335
4
Lattice="7.210215087473582 -0.24236877053178651 0.09101614545685446 0.090360845128618 7.40026718708759 0.05829618011584163 -0.21274098294576008 -0.07309451201421856 7.275156697376544" Properties=species:S:1:pos:R:3:dft_force:R:3 dft_energy=-16.840287186815335 volume=388.52005471326146 dft_virial="-0.00010310482420732353 -6.20061078720474e-05 1.047556537839372e-05 -6.20061078720474e-05 -0.00011808512382088324 -1.424946531227512e-05 1.0475565378393717e-05 -1.4249465312275114e-05 -5.3100862207563324e-05" id=2314 pbc="T T T"
Si       0.09386466      -0.02612601       0.12239771       0.00922209      -0.00533498      -0.00321049
Si       3.95215506       3.62009461      -0.04424522      -0.00948449       0.00326166      -0.00379174
Si       3.96277273       0.14502257       3.57562331      -0.01182537      -0.00669551       0.00420521
Si       0.10253165       3.57677060       3.57633303       0.01208779       0.00876883       0.00279700
