4
Lattice="7.172441200790347 -0.027443453158571513 -0.1750280966218285 0.04478089666704062 7.250122928485789 0.08420492999682082 0.08734756343933472 -0.11710959716925458 7.5109692331942925" Properties=species:S:1:pos:R:3:dft_force:R:3 dft_energy=-16.842879691912678 volume=390.77003240436176 dft_virial="-4.412440845033155e-05 -2.5687920590092553e-05 -1.585931588427478e-05 -2.5687920590092553e-05 -8.980710167305979e-05 1.1944561326122673e-05 -1.585931588427478e-05 1.1944561326122673e-05 -9.988039708927995e-05" id=2283 pbc="T T T"
Si       0.09386606      -0.02612596       0.12239452       0.01020897      -0.00380746      -0.00476503
Si       3.95215721       3.62009437      -0.04424595      -0.01071186       0.00176394      -0.00726123
Si       3.96277027       0.14502463       3.57562673      -0.01056655      -0.00276452       0.00549216
Si       0.10252658       3.57676837       3.57632995       0.01106945       0.00480803       0.00653410
2
Lattice="5.111367939266385 0.10807916293750541 0.03883445767615821 -2.555265537026047 4.274532639340415 -0.14543281232514563 -0.13887389420001076 -0.0809030871283072 8.7871319932036" Properties=species:S:1:pos:R:3:dft_force:R:3 dft_energy=-8.425748333077976 volume=194.38736515894334 dft_virial="4.425778387575124e-06 5.130720391316097e-05 -6.910480738996781e-07 5.130720391316094e-05 -4.728629021841533e-05 -1.8447550542271353e-05 -6.91048073899679e-07 -1.844755054227136e-05 2.480839599374065e-05" id=2375 pbc="T T T"
Si       0.09386627      -0.02612834       0.12239949      -0.00148584       0.00063785      -0.00186073
Si       0.28780661       2.88224698       4.35188744       0.00148584      -0.00063785       0.00186073
2
Lattice="6.736616631537921 0.0 0.0 3.670583237485725 6.0658054312705145 0.0 3.4366313638048056 1.7931365532177732 5.460116082983837" Properties=species:S:1:pos:R:3:dft_force:R:3 dft_energy=-8.437232057029329 volume=223.11675490539253 dft_virial="-0.0010958156040869877 0.012509695002342693 0.012898753592894637 0.012509695002342697 -0.0006434837203235595 0.0065310471090291216 0.012898753592894639 0.006531047109029119 -0.0012735937600072624" id=309 pbc="T T T"
Si       0.00000000       0.00000000       0.00000000       0.00961058      -0.02031810       0.01554125
Si       3.41418008       1.97117959       1.39383113      -0.00961058       0.02031810      -0.01554125
2
Lattice="7.4370436196304635 0.0 0.0 3.7172311268721123 6.154032964577043 0.0 3.2661553906500655 2.0515301445946026 5.786184546335765" Properties=species:S:1:pos:R:3:dft_force:R:3 dft_energy=-8.45811784448042 volume=264.82100416598576 dft_virial="0.00011218659200388401 0.009685522395464531 0.00894495555895272 0.009685522395464528 -0.00024161737226651518 0.0057686632191537406 0.008944955558952717 0.005768663219153741 -0.00031775470718762493" id=224 pbc="T T T"
Si       0.00000000       0.00000000       0.00000000      -0.01331709       0.00909905       0.01522219
Si       3.64867844       2.10656511       1.48956641       0.01331709      -0.00909905      -0.01522219
4
Lattice="7.23030221477421 -0.1059791102952088 0.005322356938224743 0.14611190430529114 7.19726250777291 -0.1167027202373614 0.01526789104582394 -0.1765874986198697 7.346866248011286" Properties=species:S:1:pos:R:3:dft_force:R:3 dft_energy=-16.843672466696972 volume=382.2832676955504 dft_virial="-9.85992846265401e-05 -3.506180824995297e-05 1.1125130982015711e-07 -3.5061808249952984e-05 -0.00013118564091326527 1.6026229417038662e-05 1.1125130982015702e-07 1.6026229417038655e-05 -0.00017353249982160859" id=2323 pbc="T T T"
Si       0.09386238      -0.02612518       0.12239563       0.00835766      -0.00363279      -0.00522627
Si       3.95215137       3.62009690      -0.04424518      -0.00764751       0.00136973      -0.00307254
Si       3.96277237       0.14502261       3.57562507      -0.00912533      -0.00284628       0.00459343
Si       0.10252533       3.57676812       3.57633277       0.00841518       0.00510932       0.00370539
2
Lattice="5.131129561242046 -0.02964662815548896 -0.11127640946502099 -2.4194581203057277 4.364875116331102 -0.04696247209435359 0.20836864802216845 0.19275070410901882 8.726355982186195" Properties=species:S:1:pos:R:3:dft_force:R:3 dft_energy=-8.425590766173602 volume=195.01583058281938 dft_virial="1.2388292180498246e-05 1.9031724130525726e-05 3.859705215086588e-06 1.903172413052574e-05 5.603870232843182e-06 -2.8049141944265163e-06 3.85970521508659e-06 -2.804914194426515e-06 3.2130066936990157e-05" id=2338 pbc="T T T"
Si       0.09386542      -0.02612548       0.12239822       0.00021628       0.00060863      -0.00161662
Si       0.28780735       2.88224494       4.35189183      -0.00021628      -0.00060863       0.00161663
2
Lattice="6.834355156429691 0.0 0.0 3.1597127872282695 6.00296069926996 0.0 3.409710325433387 1.9430504164104603 5.627063937463901" Properties=species:S:1:pos:R:3:dft_force:R:3 dft_energy=-8.446586447713493 volume=230.85798127764008 dft_virial="-0.000816950944363117 0.010230098790581075 0.011834143502483834 0.010230098790581075 -0.000711116931231515 0.006656579899879379 0.011834143502483838 0.006656579899879381 -0.000774156562715595" id=284 pbc="T T T"
Si       0.00000000       0.00000000       0.00000000       0.00911794      -0.00007354       0.00742549
Si       3.47275745       2.00499492       1.41774439      -0.00911794       0.00007355      -0.00742549
2
Lattice="7.064756234722439 0.0 0.0 3.407841386296132 6.054287550540921 0.0 3.49341763384981 1.8873148340907475 5.694523380660792" Properties=species:S:1:pos:R:3:dft_force:R:3 dft_energy=-8.454836981291477 volume=243.56652827877522 dft_virial="-0.00038133108868509984 0.01014101633877988 0.011083003706973304 0.010141016338779873 -0.0005103532863857735 0.005984386018933023 0.011083003706973302 0.005984386018933026 -0.0005679827862165368" id=250 pbc="T T T"
Si       0.00000000       0.00000000       0.00000000      -0.00544954       0.00751620       0.01208030
Si       3.54723170       2.04799779       1.44815146       0.00544954      -0.00751620      -0.01208030
2
Lattice="5.318382409547646 -0.029316341823426868 -0.21013803638717804 -2.7027292569145893 4.385975382498926 0.12365900997198256 0.13335358845023146 0.0335775608508905 8.634934244811213" Properties=species:S:1:pos:R:3:dft_force:R:3 dft_energy=-8.425054897710078 volume=200.8562468073193 dft_virial="6.514174753649931e-05 -3.832060662251701e-05 -1.4164782956390148e-05 -3.832060662251698e-05 0.00012857857562448502 6.156095412795651e-07 -1.4164782956390143e-05 6.156095412795637e-07 6.524814596652516e-05" id=2355 pbc="T T T"
Si       0.09386500      -0.02612902       0.12239790      -0.00043750       0.00077000      -0.00271159
Si       0.28781015       2.88224538       4.35189130       0.00043750      -0.00077000       0.00271158
4
Lattice="7.498355953819297 0.0023301834897535446 0.1468551146928452 0.13437107368751372 7.3288030740819154 0.04006763625330525 -0.1245828025880059 0.17646449634641778 7.444496718363249" Properties=species:S:1:pos:R:3:dft_force:R:3 dft_energy=-16.844802477277543 volume=409.18688771600654 dft_virial="6.403904054162438e-05 7.217008159383094e-06 2.432098609590411e-05 7.217008159383095e-06 6.312557923677744e-05 1.2733928042499314e-05 2.4320986095904108e-05 1.2733928042499307e-05 7.177824747621524e-05" id=2318 pbc="T T T"
Si       0.09386253      -0.02612446       0.12239749       0.00200493      -0.00336208      -0.00221280
Si       3.95215517       3.62009535      -0.04424601      -0.00254144       0.00451838      -0.00581870
Si       3.96277061       0.14502669       3.57562138      -0.00127916      -0.00207016       0.00374067
Si       0.10253119       3.57676633       3.57633345       0.00181566       0.00091386       0.00429083
4
Lattice="7.413475049890437 0.014438698119599398 0.4488287573735604 0.13061121789817454 7.41225234039602 0.004867065223018656 -0.17084420518738458 -0.08045956840685753 7.145171092209187" Properties=species:S:1:pos:R:3:dft_force:R:3 dft_energy=-16.84530370976978 volume=393.18413518882585 dft_virial="-0.00011142486188733366 -2.3716923954228774e-05 4.4322788605067106e-05 -2.371692395422878e-05 -3.291182330899479e-05 -3.4897992864755935e-06 4.4322788605067106e-05 -3.4897992864755927e-06 7.81978114143649e-06" id=2297 pbc="T T T"
Si       0.09386744      -0.02612463       0.12239250       0.00827570      -0.00577965      -0.00291593
Si       3.95215600       3.62009830      -0.04424255      -0.00613239       0.00531431      -0.00181680
Si       3.96276872       0.14502057       3.57562263      -0.00781727      -0.00447511       0.00236727
Si       0.10252622       3.57677092       3.57633426       0.00567393       0.00494043       0.00236545
2
Lattice="7.30842319041006 0.0 0.0 3.596955728218056 6.1244587507266495 0.0 3.257761227204478 2.0170048482976894 6.154206819380509" Properties=species:S:1:pos:R:3:dft_force:R:3 dft_energy=-8.45819294834005 volume=275.4631364386248 dft_virial="1.1017463577230153e-05 0.008934718646138711 0.007956243412418724 0.008934718646138711 -0.00029164596999549364 0.0050468018008612454 0.007956243412418724 0.0050468018008612454 0.00019917294221859718" id=225 pbc="T T T"
Si       0.00000000       0.00000000       0.00000000      -0.00219293       0.02263632      -0.00613299
Si       3.64867697       2.10656570       1.48956422       0.00219293      -0.02263632       0.00613299
2
Lattice="5.074595720812769 0.01670935523642723 0.047026118070230986 -2.529468092013808 4.505680688575705 0.07338677705665318 -0.2944636442943175 0.012997233928996106 8.682115679471627" Properties=species:S:1:pos:R:3:dft_force:R:3 dft_energy=-8.425426620866595 volume=198.9349042385384 dft_virial="6.572410923220683e-05 -6.8069503834253515e-06 1.5103856394986405e-06 -6.806950383425356e-06 5.771224290029779e-05 2.0452433778826047e-05 1.5103856394986429e-06 2.0452433778826047e-05 3.4423812257693694e-05" id=2366 pbc="T T T"
Si       0.09386529      -0.02612722       0.12239879      -0.00116974       0.00100276      -0.00472917
Si       0.28780818       2.88224681       4.35189296       0.00116974      -0.00100276       0.00472917
4
Lattice="7.4209376161511065 0.15752069114571057 0.13501452543294878 0.19004372812727616 7.4910392177236655 0.22297401998595984 -0.24265593331368465 -0.00717462869106043 7.457474639291251" Properties=species:S:1:pos:R:3:dft_force:R:3 dft_energy=-16.84394628271211 volume=414.59034398754045 dft_virial="8.210068108181627e-05 1.7764317503239874e-05 2.639560487253791e-05 1.7764317503239874e-05 5.5604285854962366e-05 2.245937728579111e-06 2.639560487253791e-05 2.245937728579111e-06 0.000107354510797805" id=2312 pbc="T T T"
Si       0.09386353      -0.02612431       0.12239372       0.00465541      -0.00475771      -0.00170283
Si       3.95215094       3.62009257      -0.04424442      -0.00568965       0.00510465      -0.00681798
Si       3.96277088       0.14502371       3.57562671      -0.00152927      -0.00314250       0.00540813
Si       0.10252537       3.57676686       3.57633549       0.00256350       0.00279554       0.00311266
2
Lattice="7.121988480132855 0.0 0.0 3.4510461946834505 6.1489496013018 0.0 3.4339555116123357 2.0290934263169205 5.8884810906401315" Properties=species:S:1:pos:R:3:dft_force:R:3 dft_energy=-8.460075361588624 volume=257.8727698323671 dft_virial="-0.0002549928153074118 0.009342434883400787 0.009706450027406409 0.009342434883400788 -0.00030154767088272117 0.005752230144117357 0.00970645002740641 0.0057522301441173575 -0.00014814058406661566" id=248 pbc="T T T"
Si       0.00000000       0.00000000       0.00000000       0.00314655       0.00691790      -0.00099083
Si       3.57711181       2.06524716       1.46034921      -0.00314655      -0.00691790       0.00099083
4
Lattice="7.28440363753039 -0.07904079982701098 0.2233815016302129 -0.20161023151005683 7.296091499124896 0.24299757689975576 -0.20273915389690828 -0.18354730324508264 7.027358875969536" Properties=species:S:1:pos:R:3:dft_force:R:3 dft_energy=-16.843466686598394 volume=374.04328740306016 dft_virial="-0.00025714541732277564 -4.179656487221007e-06 1.967222660791333e-05 -4.179656487221008e-06 -0.0002262432912974801 -2.53101703687158e-05 1.9672226607913323e-05 -2.5310170368715785e-05 -0.00017252133413690136" id=2294 pbc="T T T"
Si       0.09386192      -0.02612733       0.12239618       0.00895858      -0.00360864      -0.00036665
Si       3.95215748       3.62009403      -0.04424652      -0.00894309       0.00427448       0.00124782
Si       3.96276753       0.14502654       3.57562654      -0.01074890      -0.00532994       0.00049636
Si       0.10252747       3.57677039       3.57633005       0.01073341       0.00466409      -0.00137752
4
Lattice="7.3758600324825 0.17260741414796663 -0.1145488670922967 -0.0280593337998483 7.521984465671997 -0.04028433114801609 0.052551752847681724 -0.12720035672953126 7.199372424785578" Properties=species:S:1:pos:R:3:dft_force:R:3 dft_energy=-16.84475060734665 volume=399.47071372181284 dft_virial="1.1585079624638604e-05 9.76111303378508e-07 -1.859601118546663e-05 9.761113033785084e-07 -2.361564183166985e-05 -3.4142783127015465e-05 -1.8596011185466635e-05 -3.4142783127015465e-05 3.823424959491761e-05" id=2281 pbc="T T T"
Si       0.09386245      -0.02612875       0.12239732       0.00516569      -0.00629710      -0.00129152
Si       3.95215256       3.62009478      -0.04424497      -0.00461649       0.00524035      -0.00158970
Si       3.96277280       0.14502047       3.57562461      -0.00477519      -0.00459580       0.00100633
Si       0.10253144       3.57677204       3.57632963       0.00422598       0.00565256       0.00187489
2
Lattice="4.9959459431154665 -0.042189704204953764 0.044668306784535414 -2.661201599360137 4.541997161779844 0.05637221215383764 -0.17191832551662184 0.024426977832137632 8.488915447312081" Properties=species:S:1:pos:R:3:dft_force:R:3 dft_energy=-8.425873896389895 volume=191.6992481109526 dft_virial="-1.4043576061665806e-05 -7.67196917504656e-06 -2.2252852610142306e-08 -7.671969175046562e-06 -4.426002621853629e-05 1.1072094357277422e-05 -2.225285261014136e-08 1.1072094357277422e-05 -0.00010559699135444719" id=2344 pbc="T T T"
Si       0.09386659      -0.02612890       0.12239180      -0.00103461       0.00091189      -0.00267895
Si       0.28780782       2.88224415       4.35189387       0.00103461      -0.00091189       0.00267895
2
Lattice="5.068793430130673 0.05605454919228805 0.12925700236274523 -2.5265683450700926 4.2785143111822626 0.022382502035166257 -0.10147043163172542 0.08370951939598892 9.006848446604145" Properties=species:S:1:pos:R:3:dft_force:R:3 dft_energy=-8.42440973092303 volume=196.62542351963427 dft_virial="1.444878458954878e-05 2.4870531445274663e-05 3.141228686045416e-05 2.4870531445274663e-05 -6.730045363771711e-05 1.867236841469922e-05 3.141228686045418e-05 1.8672368414699227e-05 -2.9048127981555814e-05" id=2363 pbc="T T T"
Si       0.09386362      -0.02612871       0.12239633      -0.00066046       0.00123592      -0.00867186
Si       0.28780986       2.88224630       4.35189224       0.00066046      -0.00123592       0.00867188
2
Lattice="5.032532250312941 -0.05265396813376273 0.05654449848461977 -2.3899119310937627 4.46563185509734 -0.06533440837522657 0.09070949959861144 0.06680663730713877 8.786726155621075" Properties=species:S:1:pos:R:3:dft_force:R:3 dft_energy=-8.42541892728616 volume=196.35256883029447 dft_virial="3.1552356894308633e-06 1.5086620458877167e-05 -6.492026397184368e-06 1.508662045887716e-05 3.0316599896088912e-05 -1.0279284132389774e-05 -6.492026397184368e-06 -1.0279284132389777e-05 3.971307725867325e-05" id=2369 pbc="T T T"
Si       0.09386434      -0.02612786       0.12239161       0.00025683       0.00062905      -0.00378134
Si       0.28781052       2.88224708       4.35188960      -0.00025683      -0.00062905       0.00378134
2
Lattice="7.100642133829082 0.0 0.0 2.963587561383984 6.15026107123229 0.0 3.767204934237841 2.088056660857494 5.859619303538722" Properties=species:S:1:pos:R:3:dft_force:R:3 dft_energy=-8.456901199062475 volume=255.894279653019 dft_virial="-0.0002708926128819005 0.007951177607205913 0.010913839738700117 0.007951177607205909 -0.0003019779382132437 0.005966507316797098 0.010913839738700113 0.005966507316797098 -0.00016726710256420008" id=256 pbc="T T T"
Si       0.00000000       0.00000000       0.00000000       0.00605418      -0.00024475      -0.00403306
Si       3.54722817       2.04799449       1.44815218      -0.00605418       0.00024475       0.00403306
2
Lattice="5.113895372369027 0.07834564517480616 -0.06760064353292278 -2.5540187524208027 4.361532852220782 -0.0420756214388101 -0.08163562056325713 -0.10732945189208264 8.77862588238239" Properties=species:S:1:pos:R:3:dft_force:R:3 dft_energy=-8.425721777743982 volume=197.4933267937983 dft_virial="6.36989099491176e-05 3.749395486655024e-05 1.5489771678504981e-06 3.7493954866550224e-05 3.1826519045989176e-05 4.3982950230964814e-06 1.5489771678504973e-06 4.3982950230964814e-06 3.748011919603057e-05" id=2334 pbc="T T T"
Si       0.09386338      -0.02612902       0.12239272      -0.00150177       0.00063503      -0.00221753
Si       0.28781018       2.88224577       4.35188916       0.00150177      -0.00063503       0.00221753
2
Lattice="5.016791549790735 -0.1654646084448449 0.014183244942072487 -2.4928356754988927 4.593779758300281 0.009118778928075423 0.003769077652827345 -0.14958573114840695 9.134443434840284" Properties=species:S:1:pos:R:3:dft_force:R:3 dft_energy=-8.423248351926965 volume=206.75684868238835 dft_virial="7.020223066352161e-05 1.0936497483720553e-05 1.7998390854434663e-05 1.0936497483720566e-05 0.00015165552542841911 -2.1911187486572807e-05 1.799839085443466e-05 -2.1911187486572797e-05 9.907038459531783e-05" id=2372 pbc="T T T"
Si       0.09386714      -0.02612849       0.12239958      -0.00119559      -0.00006962      -0.00661535
Si       0.28780746       2.88224695       4.35189345       0.00119559       0.00006963       0.00661535
4
Lattice="7.380397964106392 0.03717524034421429 -0.04931023003706615 -0.03542559961720703 7.07421278329803 0.21048311927479596 -0.1453101313051349 -0.12521421677802708 7.4063540705240545" Properties=species:S:1:pos:R:3:dft_force:R:3 dft_energy=-16.845353358143296 volume=386.8417141743198 dft_virial="-9.254954183663189e-05 -1.987021930934513e-05 2.5705366705380815e-05 -1.987021930934513e-05 -4.966633132924654e-05 3.773286321573303e-05 2.5705366705380815e-05 3.773286321573303e-05 -0.00010340098627303817" id=2325 pbc="T T T"
Si       0.09386109      -0.02612728       0.12239554       0.00534291       0.00040462      -0.00566620
Si       3.95215468       3.62009646      -0.04424559      -0.00661427      -0.00033359      -0.00584811
Si       3.96277107       0.14502185       3.57562454      -0.00424460       0.00106345       0.00489284
Si       0.10252805       3.57677111       3.57633198       0.00551596      -0.00113448       0.00662148
2
Lattice="5.126164551513988 -0.04213667848989676 -0.03683516523082664 -2.5415186865379344 4.436483509926393 -0.11255025494836998 -0.15744393047052826 0.1689768723173356 8.814388117811438" Properties=species:S:1:pos:R:3:dft_force:R:3 dft_energy=-8.425680151661687 volume=199.60097986548627 dft_virial="8.16366170347397e-05 1.0857182710648558e-05 -5.6180325034248845e-06 1.0857182710648558e-05 6.393026981907757e-05 3.428826333308748e-05 -5.618032503424887e-06 3.4288263333087494e-05 7.65603486271788e-05" id=2341 pbc="T T T"
Si       0.09386570      -0.02612699       0.12239425      -0.00086223       0.00134437      -0.00171266
Si       0.28780691       2.88224842       4.35189500       0.00086223      -0.00134437       0.00171266
2
Lattice="5.113416270104651 -0.11973225357131645 -0.03954584507577358 -2.413714014291009 4.3779449913323285 0.026670498481815838 -0.10414063354308288 -0.06573230910802778 8.66488971090725" Properties=species:S:1:pos:R:3:dft_force:R:3 dft_energy=-8.42561137531834 volume=191.45527664287965 dft_virial="-3.798723618038197e-05 1.5330752286619626e-05 -6.152438279611633e-06 1.5330752286619633e-05 -5.961844075532297e-05 4.817048299338266e-06 -6.152438279611633e-06 4.817048299338263e-06 -3.307807256724947e-05" id=2370 pbc="T T T"
Si       0.09386402      -0.02612665       0.12239151      -0.00103532       0.00014432      -0.00289370
Si       0.28780952       2.88224780       4.35189124       0.00103532      -0.00014432       0.00289370
2
Lattice="7.013026871786932 0.0 0.0 3.2034145935863654 6.063239183193272 0.0 3.4733317348711625 1.6154890694200783 5.8766703023612195" Properties=species:S:1:pos:R:3:dft_force:R:3 dft_energy=-8.455240734349786 volume=249.8857725435775 dft_virial="-0.00044181953204755806 0.009105170189705147 0.010296191647385211 0.009105170189705147 -0.0004565011338853585 0.0046747596240224905 0.010296191647385211 0.0046747596240224905 -0.00017473983614309192" id=262 pbc="T T T"
Si       0.00000000       0.00000000       0.00000000       0.00439595       0.01204684      -0.00830238
Si       3.52022948       2.03240598       1.43712797      -0.00439595      -0.01204684       0.00830238
2
Lattice="6.77323574438092 0.0 0.0 3.4488560021050096 5.738306445242245 0.0 3.42204078839657 2.0730862504982084 5.374458577206799" Properties=species:S:1:pos:R:3:dft_force:R:3 dft_energy=-8.421316805880801 volume=208.88855658148222 dft_virial="-0.0011482145892616664 0.013504946312579775 0.014292436995409613 0.013504946312579773 -0.0015486431335596108 0.008807892232639107 0.014292436995409613 0.008807892232639107 -0.0017804102384681023" id=320 pbc="T T T"
Si       0.00000000       0.00000000       0.00000000      -0.01767450       0.01001235       0.02877688
Si       3.39732189       1.96144584       1.38695428       0.01767451      -0.01001235      -0.02877688
4
Lattice="7.411140236571678 -0.3599542952255281 -0.29041980046296956 -0.16140972861292915 7.079301966929737 -0.021926416634987827 -0.14042860967726287 -0.08673219302411159 7.399918230261417" Properties=species:S:1:pos:R:3:dft_force:R:3 dft_energy=-16.844210056322794 volume=387.5039662221563 dft_virial="-0.00017475953000080737 -9.749410154940064e-05 -2.2899056238879258e-05 -9.749410154940067e-05 -5.3571998038722934e-05 3.6562377726775226e-05 -2.289905623887927e-05 3.656237772677524e-05 -6.111407145882204e-05" id=2298 pbc="T T T"
Si       0.09386702      -0.02612998       0.12239490       0.00959896       0.00271540      -0.00481046
Si       3.95215271       3.62009382      -0.04424845      -0.01276938      -0.00428921      -0.00458955
Si       3.96277116       0.14502437       3.57562359      -0.00720604       0.00018432       0.00416511
Si       0.10253085       3.57676778       3.57633016       0.01037646       0.00138949       0.00523489
4
Lattice="7.29395068509009 -0.011824639971404571 0.0489678683550677 -0.22825992410724052 7.099405874998352 -0.1532702057626348 -0.09868592018708934 -0.12637144726222543 7.5161645249478966" Properties=species:S:1:pos:R:3:dft_force:R:3 dft_energy=-16.8440626360759 volume=389.08139351570253 dft_virial="-4.818815565444895e-05 -6.422131538462275e-05 2.1799444854136576e-05 -6.422131538462275e-05 -5.7873140984668194e-05 6.533814294790814e-06 2.1799444854136576e-05 6.533814294790814e-06 -0.00012586608669417685" id=2305 pbc="T T T"
Si       0.09386763      -0.02612410       0.12239563       0.00847596       0.00017499      -0.00693018
Si       3.95215286       3.62009301      -0.04424894      -0.00912980      -0.00430128      -0.00650680
Si       3.96277082       0.14502605       3.57562320      -0.00799177       0.00117964       0.00695300
Si       0.10253042       3.57676892       3.57632990       0.00864563       0.00294664       0.00648396
2
Lattice="6.770915160699879 0.0 0.0 3.364715946406047 5.895992751985519 0.0 3.8763233898521063 1.7197263624544359 5.4939024963660215" Properties=species:S:1:pos:R:3:dft_force:R:3 dft_energy=-8.434826323191283 volume=219.3235468460262 dft_virial="-0.0010413065403409854 0.011958559972297157 0.01489366834664195 0.011958559972297157 -0.0010125724820734252 0.006460171429254941 0.014893668346641947 0.006460171429254939 -0.0011725723216650264" id=316 pbc="T T T"
Si       0.00000000       0.00000000       0.00000000      -0.00027450       0.00050682       0.00689661
Si       3.41418497       1.97117922       1.39383602       0.00027450      -0.00050682      -0.00689661
2
Lattice="5.035897058855927 0.17414992199445364 0.023995137618138148 -2.5211421287840583 4.428009203195859 -0.04208344490496605 -0.20360595237301288 -0.08827037339777323 8.625299570651116" Properties=species:S:1:pos:R:3:dft_force:R:3 dft_energy=-8.425849788970408 volume=196.13229643697184 dft_virial="2.6848955919810398e-05 3.453072805703888e-06 1.090721155789111e-05 3.4530728057038945e-06 7.463678035957628e-05 8.485656007700028e-06 1.0907211557891113e-05 8.48565600770003e-06 -1.7832216347094555e-05" id=2374 pbc="T T T"
Si       0.09386551      -0.02612953       0.12239505      -0.00119763       0.00050231      -0.00127007
Si       0.28780999       2.88224642       4.35188977       0.00119763      -0.00050231       0.00127007
2
Lattice="7.243087799377248 0.0 0.0 3.6253356351576858 6.4434974328949695 0.0 4.073376471223583 2.3706595336169043 5.841162348479502" Properties=species:S:1:pos:R:3:dft_force:R:3 dft_energy=-8.459042250903495 volume=272.6118227804007 dft_virial="-6.285148382558102e-05 0.008720777377981707 0.010895805163086249 0.008720777377981707 0.00012648944367262688 0.0062880503233702645 0.010895805163086253 0.006288050323370267 -0.0001613468684887281" id=237 pbc="T T T"
Si       0.00000000       0.00000000       0.00000000       0.00311264      -0.01656282      -0.00652404
Si       3.61064961       2.08460562       1.47404069      -0.00311264       0.01656282       0.00652404
2
Lattice="6.7958406482836935 0.0 0.0 3.21843791627714 6.028247124543578 0.0 3.4501088905256365 2.461511896510537 5.555084269376905" Properties=species:S:1:pos:R:3:dft_force:R:3 dft_energy=-8.44238736490969 volume=227.57517529851765 dft_virial="-0.0009088192798475689 0.010616888034204353 0.012370234392320729 0.010616888034204353 -0.0006754663456865166 0.008836941411885823 0.012370234392320729 0.008836941411885823 -0.0009337221292073958" id=295 pbc="T T T"
Si       0.00000000       0.00000000       0.00000000       0.01310041      -0.00935902       0.00716344
Si       3.45169751       1.99283699       1.40914711      -0.01310041       0.00935902      -0.00716344
2
Lattice="5.03335651105398 -0.10030722961297327 -0.05306817720301945 -2.6306701447413143 4.4203383135272105 -0.013905304023662529 -0.012925292055431605 0.03898635386205563 9.011039216641684" Properties=species:S:1:pos:R:3:dft_force:R:3 dft_energy=-8.424950254315794 volume=198.11519197978527 dft_virial="-1.3125129834652264e-06 -4.2287001179457306e-05 1.2273440202952605e-05 -4.228700117945729e-05 1.3879831477041741e-05 3.6450718926010086e-06 1.2273440202952605e-05 3.645071892601009e-06 2.4819731200699263e-05" id=2335 pbc="T T T"
Si       0.09386670      -0.02612922       0.12239866      -0.00158026       0.00061712      -0.00500823
Si       0.28780901       2.88224606       4.35189413       0.00158026      -0.00061712       0.00500822
2
Lattice="6.878803404607013 0.0 0.0 3.915540876116465 5.860645424824393 0.0 3.9443157358161414 2.2089821252984216 5.55564173858367" Properties=species:S:1:pos:R:3:dft_force:R:3 dft_energy=-8.438016959001143 volume=223.97140607708917 dft_virial="-0.0008084384383679556 0.013631389510862773 0.014452968365808132 0.01363138951086278 -0.0009638726840732497 0.008152452339283252 0.014452968365808139 0.00815245233928325 -0.000900415317151476" id=325 pbc="T T T"
Si       0.00000000       0.00000000       0.00000000      -0.00362324      -0.00415719      -0.01519659
Si       3.39732640       1.96144548       1.38695485       0.00362324       0.00415719       0.01519659
2
Lattice="7.006246534451775 0.0 0.0 3.335788018890276 5.996405239343633 0.0 3.3680286363025163 2.1625043112632505 5.914782298842672" Properties=species:S:1:pos:R:3:dft_force:R:3 dft_energy=-8.454950927051035 volume=248.4935694976954 dft_virial="-0.00043500504749581476 0.009764216627364606 0.009998016482380015 0.009764216627364609 -0.000625394529111323 0.006518540887304554 0.009998016482380018 0.006518540887304553 -0.00014879854142762125" id=254 pbc="T T T"
Si       0.00000000       0.00000000       0.00000000       0.00602964       0.01750871      -0.00696384
Si       3.54722919       2.04799456       1.44815165      -0.00602964      -0.01750871       0.00696383
2
Lattice="7.14579902930314 0.0 0.0 3.711030935457215 5.9885855526399325 0.0 3.5969443898613083 1.663285912290238 5.8566203081789405" Properties=species:S:1:pos:R:3:dft_force:R:3 dft_energy=-8.455496509167098 volume=250.623693012196 dft_virial="-0.00030639772706881886 0.01072181640470115 0.01060768466230212 0.01072181640470115 -0.0005637964361710178 0.004901697342771232 0.01060768466230212 0.004901697342771233 -0.00019324993497075587" id=277 pbc="T T T"
Si       0.00000000       0.00000000       0.00000000      -0.01111879       0.01190772      -0.01659840
Si       3.49552504       2.01814507       1.42704167       0.01111879      -0.01190772       0.01659840
2
Lattice="7.055184771901209 0.0 0.0 3.2155220688668424 5.884306685630833 0.0 3.1231125716465176 1.7523827196140938 5.798522568203445" Properties=species:S:1:pos:R:3:dft_force:R:3 dft_energy=-8.44971595656496 volume=240.7249159552935 dft_virial="-0.00049912397065012 0.00982407901264187 0.009690510298056688 0.009824079012641866 -0.0008427497557233658 0.005541374078885536 0.009690510298056685 0.005541374078885534 -0.0003258656140953391" id=299 pbc="T T T"
Si       0.00000000       0.00000000       0.00000000      -0.00840537       0.01667462      -0.01752598
Si       3.43223065       1.98160066       1.40120138       0.00840537      -0.01667462       0.01752598
2
Lattice="5.055476681308526 -0.019350304187375485 0.1825662519274832 -2.5215333398863784 4.424816284141169 -0.07324342243283907 0.08940940581939141 -0.06322010719795028 8.588394013122146" Properties=species:S:1:pos:R:3:dft_force:R:3 dft_energy=-8.425457545629582 volume=191.6331020659112 dft_virial="-2.8992379794610213e-05 -4.2259337786341625e-07 4.9309037177686214e-05 -4.2259337786341694e-07 -4.049689013336249e-06 -3.2972331375425888e-06 4.9309037177686214e-05 -3.29723313754259e-06 -9.332046567107143e-05" id=2360 pbc="T T T"
Si       0.09386478      -0.02612875       0.12239981      -0.00052144      -0.00025502      -0.00324481
Si       0.28780695       2.88224695       4.35189521       0.00052144       0.00025502       0.00324480
2
Lattice="6.666891406717604 0.0 0.0 3.222608541834189 5.9563335968709445 0.0 2.9777302717006835 2.4247321569469458 5.685628439792178" Properties=species:S:1:pos:R:3:dft_force:R:3 dft_energy=-8.438296586006475 volume=225.77760890252043 dft_virial="-0.001208826164416531 0.010870524092554111 0.010484342421366996 0.010870524092554108 -0.0008556076539881684 0.008556881773429413 0.010484342421366992 0.008556881773429413 -0.0006109225784558544" id=321 pbc="T T T"
Si       0.00000000       0.00000000       0.00000000       0.02895740      -0.00111424      -0.02024726
Si       3.39732587       1.96144590       1.38695221      -0.02895740       0.00111424       0.02024726
2
Lattice="4.95330238338716 0.038338952589020085 0.02217655968210454 -2.5450800454951428 4.255079288387464 0.0295951709131154 -0.04164576543724148 -0.08996143261491708 8.943502426954513" Properties=species:S:1:pos:R:3:dft_force:R:3 dft_energy=-8.424420989481836 volume=189.39428376598164 dft_virial="-0.00015842056355194889 -1.7039616734127974e-05 1.935456603646736e-05 -1.7039616734127978e-05 -0.00018549590064490461 1.2402814567014833e-05 1.9354566036467353e-05 1.2402814567014828e-05 -4.8195368359458016e-05" id=2331 pbc="T T T"
Si       0.09386221      -0.02612580       0.12239896      -0.00190341       0.00001038      -0.00785364
Si       0.28780733       2.88224560       4.35189404       0.00190341      -0.00001037       0.00785364
2
Lattice="7.173271867702949 0.0 0.0 3.318984574190104 6.372211294295711 0.0 3.4974276326862657 1.7071086611203097 5.831726945939246" Properties=species:S:1:pos:R:3:dft_force:R:3 dft_energy=-8.459526334284789 volume=266.5659294075031 dft_virial="-0.00018239386853968523 0.008205042757869582 0.00953621392727179 0.008205042757869582 4.4004507538810405e-05 0.004504533440941044 0.00953621392727179 0.004504533440941043 -0.00020003309026572137" id=242 pbc="T T T"
Si       0.00000000       0.00000000       0.00000000       0.00436658      -0.00448563       0.00349220
Si       3.57710221       2.06524417       1.46034607      -0.00436658       0.00448564      -0.00349220
2
Lattice="6.700777975584393 0.0 0.0 3.2729130512717273 5.86392032019837 0.0 3.4325004224963735 2.3231215832258183 5.594137349468421" Properties=species:S:1:pos:R:3:dft_force:R:3 dft_energy=-8.435761296842088 volume=219.80947742039896 dft_virial="-0.0012025997831567488 0.011685299617828304 0.012846930763982746 0.011685299617828304 -0.001123121624140247 0.008735065660708558 0.012846930763982746 0.008735065660708558 -0.0009129846002459471" id=322 pbc="T T T"
Si       0.00000000       0.00000000       0.00000000       0.01255360       0.00361006      -0.00804103
Si       3.39732672       1.96144586       1.38695447      -0.01255360      -0.00361006       0.00804103
2
Lattice="7.241543893133429 0.0 0.0 3.8569366895395705 6.030325823280665 0.0 3.6303547477446916 2.1760460886723187 5.90078509743757" Properties=species:S:1:pos:R:3:dft_force:R:3 dft_energy=-8.458074223193838 volume=257.68061223844194 dft_virial="-0.00012018365041562302 0.010736177469471416 0.01026690964134878 0.010736177469471421 -0.00048526854104665167 0.0063033780446354335 0.010266909641348786 0.006303378044635432 -0.00013393714026996428" id=249 pbc="T T T"
Si       0.00000000       0.00000000       0.00000000      -0.01125560       0.01152912      -0.00821906
Si       3.57710591       2.06524623       1.46034991       0.01125560      -0.01152912       0.00821906
2
Lattice="7.167593240698449 0.0 0.0 3.4526902564118753 6.34363107638687 0.0 3.1724363132253752 1.9844656541577583 6.176628419849193" Properties=species:S:1:pos:R:3:dft_force:R:3 dft_energy=-8.458031350856587 volume=280.84244452925793 dft_virial="-0.0001143299017240769 0.008069284353941213 0.007532759543621847 0.008069284353941213 5.756736545456533e-06 0.004693180403894986 0.007532759543621847 0.004693180403894986 0.00023100323545282144" id=227 pbc="T T T"
Si       0.00000000       0.00000000       0.00000000       0.01655545       0.00827802      -0.00543341
Si       3.64867474       2.10656279       1.48956806      -0.01655545      -0.00827801       0.00543341
2
Lattice="7.270107103507147 0.0 0.0 4.019848089017434 6.33523124376291 0.0 3.9052966707948684 2.0104569472758613 6.107506017662631" Properties=species:S:1:pos:R:3:dft_force:R:3 dft_energy=-8.459301651510117 volume=281.29834970547853 dft_virial="-3.174890126804643e-05 0.009502916550875653 0.00952270438455985 0.009502916550875653 1.1914554325270749e-05 0.004835821080902198 0.00952270438455985 0.004835821080902198 0.00018486250361135368" id=238 pbc="T T T"
Si       0.00000000       0.00000000       0.00000000       0.00069830      -0.00665662      -0.02147931
Si       3.61064498       2.08460791       1.47404046      -0.00069829       0.00665663       0.02147930
4
Lattice="7.511220717946958 -0.1872151482694138 -0.03973088705789694 -0.11105455561798994 7.433619662659776 0.18464359006176181 0.18735680213971576 -0.11143811332950522 7.409061443348283" Properties=species:S:1:pos:R:3:dft_force:R:3 dft_energy=-16.844401513216148 volume=413.7379574720906 dft_virial="7.521061358589206e-05 -1.7952062221687923e-05 -6.455772847740098e-06 -1.795206222168793e-05 7.236991563040881e-05 -1.11019310314928e-05 -6.4557728477401e-06 -1.11019310314928e-05 0.00010361387073550784" id=2286 pbc="T T T"
Si       0.09386249      -0.02612822       0.12239499       0.00193026      -0.00491303      -0.00108954
Si       3.95215598       3.62009811      -0.04424361      -0.00093584       0.00433794      -0.00476749
Si       3.96277095       0.14502291       3.57562471      -0.00512492      -0.00276147       0.00373698
Si       0.10252839       3.57677200       3.57632980       0.00413051       0.00333656       0.00212007
2
Lattice="6.905692317634314 0.0 0.0 3.2886979335907265 6.2736280618262334 0.0 3.2810709989517366 2.206147536111483 5.973239086781846" Properties=species:S:1:pos:R:3:dft_force:R:3 dft_energy=-8.455719095536374 volume=258.7830876783101 dft_virial="-0.0005182534831314902 0.00876084345049458 0.00915818868364289 0.00876084345049458 -0.00016354050958634098 0.0060808941803757195 0.009158188683642893 0.006080894180375721 -2.7783639485477462e-05" id=245 pbc="T T T"
Si       0.00000000       0.00000000       0.00000000       0.03090331      -0.00091428      -0.00652484
Si       3.57710572       2.06524145       1.46034943      -0.03090331       0.00091428       0.00652485
2
Lattice="6.993679855723014 0.0 0.0 3.617103988158816 6.236494943477338 0.0 3.724294923125963 2.431083526451813 5.874043583047991" Properties=species:S:1:pos:R:3:dft_force:R:3 dft_energy=-8.457690560232045 volume=256.20257307833367 dft_virial="-0.000432553361184959 0.009862843162250778 0.010763765561443893 0.009862843162250775 -0.00018520958111257783 0.007030192622564758 0.01076376556144389 0.007030192622564758 -0.00016026254230238192" id=258 pbc="T T T"
Si       0.00000000       0.00000000       0.00000000       0.01443945      -0.00842793      -0.01230109
Si       3.54723235       2.04799520       1.44815146      -0.01443945       0.00842793       0.01230109
2
Lattice="6.815185774621487 0.0 0.0 3.848174029499681 5.904916038746002 0.0 3.9208982496797793 1.2962292892951777 5.442800522503891" Properties=species:S:1:pos:R:3:dft_force:R:3 dft_energy=-8.432115750942812 volume=219.0351645511037 dft_virial="-0.0009486905093820269 0.013710219291330135 0.015130843210047045 0.013710219291330138 -0.0009068454626631338 0.004866507416256821 0.015130843210047049 0.00486650741625682 -0.0011596611739477895" id=317 pbc="T T T"
Si       0.00000000       0.00000000       0.00000000      -0.00167574      -0.00370323       0.00523099
Si       3.41417817       1.97117708       1.39383589       0.00167574       0.00370323      -0.00523099
4
Lattice="7.15330951901833 0.24299117072819326 -0.5223240236070283 0.12263224617942842 7.2622660440009765 -0.14850692429838058 -0.007589744828856974 0.024810630029959153 7.247832429244653" Properties=species:S:1:pos:R:3:dft_force:R:3 dft_energy=-16.839112560932126 volume=376.29963994722414 dft_virial="-0.00022658126708597706 3.989241260798409e-05 -9.266963494788733e-05 3.9892412607984065e-05 -0.00017111286451402348 5.0829983951120655e-06 -9.26696349478873e-05 5.082998395112067e-06 -0.0002364105397698229" id=2316 pbc="T T T"
Si       0.09386483      -0.02612461       0.12239372       0.01499753      -0.00555328       0.00198075
Si       3.95215587       3.62009431      -0.04424680      -0.01752298       0.00464447      -0.00864276
Si       3.96277033       0.14502635       3.57562395      -0.01324743       0.00010884      -0.00191019
Si       0.10253176       3.57677328       3.57633239       0.01577286       0.00079997       0.00857220
2
Lattice="7.125115976869111 0.0 0.0 3.306313960524488 6.446418949483641 0.0 3.826810675660787 2.0317428223436464 5.986812989535033" Properties=species:S:1:pos:R:3:dft_force:R:3 dft_energy=-8.459555417734213 volume=274.9831969609617 dft_virial="-0.00021480175757102653 0.007778092081179732 0.009875156703825464 0.007778092081179733 0.0001016119049169508 0.005081819497047313 0.009875156703825466 0.005081819497047312 4.054661757896532e-05" id=241 pbc="T T T"
Si       0.00000000       0.00000000       0.00000000       0.01310656      -0.01042643      -0.01122342
Si       3.57710644       2.06524192       1.46034533      -0.01310656       0.01042642       0.01122342
2
Lattice="7.025710713535421 0.0 0.0 3.702693463795366 5.90032778371541 0.0 3.3722937481657964 2.2371352651030962 5.680271066228864" Properties=species:S:1:pos:R:3:dft_force:R:3 dft_energy=-8.448952973477633 volume=235.46993475942642 dft_virial="-0.00048888500613135 0.01190893991366758 0.011195242542852021 0.011908939913667576 -0.000870108232890777 0.007634029776865444 0.011195242542852018 0.007634029776865444 -0.0006346722748518816" id=272 pbc="T T T"
Si       0.00000000       0.00000000       0.00000000      -0.01044182       0.01283021       0.00166988
Si       3.49552642       2.01814341       1.42704314       0.01044182      -0.01283021      -0.00166988
4
Lattice="7.466819637333706 -0.34404648622212214 -0.08204334787190638 -0.2567954877877558 7.095149663745119 -0.06310379455497955 0.29141459008949505 0.13015439550480754 7.542053659471703" Properties=species:S:1:pos:R:3:dft_force:R:3 dft_energy=-16.84386136616067 volume=399.1381422703754 dft_virial="-5.2325575201624515e-05 -0.00010851882813450355 -1.8440680656806464e-05 -0.0001085188281345035 -7.150857898549151e-06 -8.237045953903262e-07 -1.8440680656806464e-05 -8.237045953903264e-07 1.1820559754682444e-06" id=2319 pbc="T T T"
Si       0.09386158      -0.02612747       0.12239235       0.01131332       0.00489039      -0.00491060
Si       3.95215166       3.62009399      -0.04424932      -0.00851932      -0.00279682      -0.00659293
Si       3.96277246       0.14502180       3.57562223      -0.00892462      -0.00046076       0.00551293
Si       0.10252654       3.57676924       3.57633524       0.00613063      -0.00163280       0.00599055
2
Lattice="4.972586169214949 -0.0017757378447883438 0.030680572907316708 -2.434780208696806 4.420841490902414 -0.10832138803215993 -0.17377862860548718 -0.37025543799525934 9.059066303742869" Properties=species:S:1:pos:R:3:dft_force:R:3 dft_energy=-8.425062849321568 volume=198.9581872485642 dft_virial="-3.285999131727156e-05 4.105940533912761e-05 1.014527937155425e-05 4.105940533912761e-05 5.526904493880037e-05 -2.131173376099506e-05 1.0145279371554252e-05 -2.131173376099506e-05 6.390094052608424e-05" id=2333 pbc="T T T"
Si       0.09386162      -0.02612618       0.12239480      -0.00217756      -0.00037013      -0.00402092
Si       0.28781100       2.88224422       4.35189478       0.00217756       0.00037013       0.00402092
2
Lattice="6.903685428489961 0.0 0.0 3.6336882246285316 5.955589044777842 0.0 3.0345184314718128 2.2564293688355255 5.599825425103544" Properties=species:S:1:pos:R:3:dft_force:R:3 dft_energy=-8.445440758873845 volume=230.23969677996232 dft_virial="-0.000709459783376547 0.011915792157764503 0.01046960683201481 0.011915792157764503 -0.0007838939120246776 0.007909139252513065 0.01046960683201481 0.007909139252513065 -0.000800620573574009" id=290 pbc="T T T"
Si       0.00000000       0.00000000       0.00000000       0.00099005       0.00065704       0.00163485
Si       3.45170452       1.99284192       1.40915127      -0.00099005      -0.00065705      -0.00163485
2
Lattice="6.962454021239698 0.0 0.0 3.1123335738316524 5.989464275287883 0.0 3.228619760636624 1.902901295166661 5.886209639838331" Properties=species:S:1:pos:R:3:dft_force:R:3 dft_energy=-8.452664590908148 volume=245.46300390203027 dft_virial="-0.0005109216339003769 0.00919907327652739 0.009746122434008943 0.009199073276527393 -0.0006363656570987793 0.005748514464614368 0.009746122434008943 0.005748514464614366 -0.00018368402551435862" id=265 pbc="T T T"
Si       0.00000000       0.00000000       0.00000000       0.00967589       0.01656517      -0.00769419
Si       3.52023338       2.03240532       1.43712986      -0.00967589      -0.01656517       0.00769418
4
Lattice="7.6305007411593895 -0.08685408035914995 -0.07918171670412434 0.18069166250911567 7.482205296111616 -0.017077643960855548 0.031461086488570884 -0.26060260562747184 7.488480358475571" Properties=species:S:1:pos:R:3:dft_force:R:3 dft_energy=-16.84224806185527 volume=427.6455852153688 dft_virial="0.0001652405502200189 -8.632655292566064e-06 -1.1701804784799388e-05 -8.632655292566067e-06 0.00014260827543478326 -2.4223466518161692e-05 -1.1701804784799391e-05 -2.4223466518161692e-05 0.00016087256403994997" id=2280 pbc="T T T"
Si       0.09386404      -0.02613041       0.12239384       0.00157999      -0.00712072      -0.00234987
Si       3.95215753       3.62009858      -0.04424792      -0.00089462       0.00269050      -0.00289345
Si       3.96277014       0.14502144       3.57562253       0.00007234      -0.00068072       0.00267661
Si       0.10252705       3.57676998       3.57632954      -0.00075772       0.00511092       0.00256673
2
Lattice="5.086108083542079 0.26549395383119195 -0.06337264589073006 -2.4839825731666787 4.250488463329343 0.15066716471774655 0.1625767289811918 0.2675384485254246 8.88717641860442" Properties=species:S:1:pos:R:3:dft_force:R:3 dft_energy=-8.424287277409714 volume=197.8752528033214 dft_virial="6.728981327050882e-05 3.500931007760987e-05 8.294974574229061e-06 3.5009310077609886e-05 -7.504595193185547e-05 1.8027426226988147e-05 8.294974574229061e-06 1.8027426226988147e-05 2.497727841913479e-05" id=2330 pbc="T T T"
Si       0.09386330      -0.02612758       0.12239433       0.00134876       0.00199524      -0.00739686
Si       0.28780655       2.88224668       4.35189464      -0.00134876      -0.00199524       0.00739686
2
Lattice="6.8397881190379906 0.0 0.0 3.3662352862102463 6.112736779575596 0.0 3.8681862291594684 1.7800596484353628 5.5514635541221224" Properties=species:S:1:pos:R:3:dft_force:R:3 dft_energy=-8.445130554787635 volume=232.1057163594453 dft_virial="-0.0008176896413914023 0.010658815755432609 0.013608496223093002 0.010658815755432609 -0.0004780016117535933 0.006021184149755153 0.013608496223092995 0.006021184149755148 -0.0009226089959404365" id=296 pbc="T T T"
Si       0.00000000       0.00000000       0.00000000       0.00598179      -0.01374515       0.00737931
Si       3.45169925       1.99283616       1.40915020      -0.00598180       0.01374516      -0.00737931
2
Lattice="4.9698425136491275 -0.09043898530387126 0.047950761063010376 -2.5409056215885832 4.50316534972026 -0.07032659236495671 0.29239991218813616 0.12003453416221159 8.905262269247288" Properties=species:S:1:pos:R:3:dft_force:R:3 dft_energy=-8.424990715445634 volume=197.21961943574013 dft_virial="-3.6934912179594936e-05 -1.1631226841430162e-05 4.494814103918013e-05 -1.1631226841430166e-05 4.429682676822076e-05 -1.1841224573905635e-05 4.494814103918013e-05 -1.1841224573905637e-05 4.907856143849534e-05" id=2358 pbc="T T T"
Si       0.09386634      -0.02612767       0.12239873       0.00032281       0.00071898      -0.00481457
Si       0.28781009       2.88224591       4.35188943      -0.00032281      -0.00071898       0.00481458
2
Lattice="6.853721069754855 0.0 0.0 3.64457871628475 6.0257942600338135 0.0 3.679138027651906 2.6421640448463872 5.615999591004217" Properties=species:S:1:pos:R:3:dft_force:R:3 dft_energy=-8.444729603218633 volume=231.93580217735794 dft_virial="-0.0007804708887947428 0.011782880193150224 0.012705479896364426 0.011782880193150227 -0.0006176097462572059 0.009233838112877382 0.012705479896364424 0.009233838112877377 -0.0007104201459484087" id=291 pbc="T T T"
Si       0.00000000       0.00000000       0.00000000       0.00874394      -0.00774702      -0.00894014
Si       3.45169647       1.99283860       1.40914976      -0.00874393       0.00774702       0.00894014
4
Lattice="7.0957474219128605 0.020299608106081238 0.054461094329481104 0.2659897801717713 7.236163313733305 -0.23072272857642032 0.3649944593615625 0.05754637458411262 7.2440514652145005" Properties=species:S:1:pos:R:3:dft_force:R:3 dft_energy=-16.839329937292078 volume=371.8633552408757 dft_virial="-0.00021083122123160557 1.9164702415692632e-05 5.3000041911877276e-05 1.9164702415692635e-05 -0.0002507545754641794 3.96882166850174e-05 5.3000041911877276e-05 3.968821668501739e-05 -0.00029804273510138855" id=2303 pbc="T T T"
Si       0.09386593      -0.02612425       0.12239835       0.01599515      -0.00399422      -0.00635284
Si       3.95215303       3.62009182      -0.04424457      -0.01536048       0.00255589       0.00264320
Si       3.96276848       0.14502463       3.57562299      -0.01586233      -0.00207181       0.00445973
Si       0.10252581       3.57676741       3.57633483       0.01522762       0.00351016      -0.00075008
2
Lattice="7.002170395200958 0.0 0.0 3.624060070023563 5.6972748218982465 0.0 3.4947933544685372 1.6266441227337443 5.560398179239352" Properties=species:S:1:pos:R:3:dft_force:R:3 dft_energy=-8.434310665291811 volume=221.82257202668728 dft_virial="-0.000716229111196492 0.012974075258874536 0.012836336299167304 0.012974075258874541 -0.001436568038740209 0.00618328341998943 0.012836336299167313 0.006183283419989431 -0.0009665888847366266" id=318 pbc="T T T"
Si       0.00000000       0.00000000       0.00000000      -0.02760923       0.02879143      -0.00628469
Si       3.39731986       1.96144391       1.38695236       0.02760923      -0.02879143       0.00628469
2
Lattice="6.773352907400646 0.0 0.0 3.390013710036412 6.118001556558803 0.0 3.451135011811308 1.713798291601485 5.595809757088714" Properties=species:S:1:pos:R:3:dft_force:R:3 dft_energy=-8.445745072024526 volume=231.8869072478495 dft_virial="-0.0009711152762409475 0.010769481851832085 0.01198349389812628 0.010769481851832088 -0.0004905934941204863 0.005720848918997077 0.01198349389812628 0.0057208489189970735 -0.000825466531974741" id=301 pbc="T T T"
Si       0.00000000       0.00000000       0.00000000       0.01458474      -0.01334037       0.00158937
Si       3.43223046       1.98159977       1.40120195      -0.01458474       0.01334037      -0.00158938
4
Lattice="7.4363899822612165 -0.1916984668083047 -0.011490649776138213 -0.05794510679640865 7.373280235068944 -0.21485422587640657 -0.14034200352897128 -0.17031230397508615 7.321098622877294" Properties=species:S:1:pos:R:3:dft_force:R:3 dft_energy=-16.845153383363055 volume=401.0489155745682 dft_virial="-2.6795222884547473e-06 -2.3117244457530057e-05 1.14212238042893e-05 -2.3117244457530057e-05 8.2884656819034e-06 -1.9971235108692517e-05 1.1421223804289298e-05 -1.9971235108692513e-05 3.399753801937287e-05" id=2313 pbc="T T T"
Si       0.09386702      -0.02612728       0.12239835       0.00182534      -0.00636033      -0.00353840
Si       3.95215474       3.62009781      -0.04424544      -0.00359455       0.00328728      -0.00195044
Si       3.96277224       0.14502461       3.57562329      -0.00361480      -0.00248810       0.00176916
Si       0.10253006       3.57677173       3.57633655       0.00538402       0.00556114       0.00371968
2
Lattice="4.991359124276729 -0.04963891010192231 0.1193464281884516 -2.5293837724341275 4.294485048065619 -0.13527290768596886 -0.01872896223759853 0.03684501070393594 8.86324097743456" Properties=species:S:1:pos:R:3:dft_force:R:3 dft_energy=-8.424938468720041 volume=188.8967778537166 dft_virial="-0.00012304213709794594 -4.182150571474159e-05 2.852191827532818e-05 -4.182150571474162e-05 -0.00017721827840958652 -1.9298357337457137e-05 2.8521918275328193e-05 -1.9298357337457137e-05 -4.131997508676395e-05" id=2371 pbc="T T T"
Si       0.09386478      -0.02612698       0.12239852      -0.00139190       0.00004997      -0.00387820
Si       0.28780638       2.88224797       4.35189360       0.00139190      -0.00004997       0.00387820
4
Lattice="7.427872533083258 0.27967203982094424 -0.020501903287722428 -0.11496506037398427 7.497986077724925 0.036673234599207453 0.30615449165609854 0.13631388221898022 7.1437434419165555" Properties=species:S:1:pos:R:3:dft_force:R:3 dft_energy=-16.844890310014893 volume=398.10733451350865 dft_virial="-8.441410739692595e-06 -4.429543526519738e-07 4.777329397929209e-05 -4.4295435265197417e-07 -2.865888323433349e-05 2.2238845589117894e-05 4.777329397929212e-05 2.2238845589117894e-05 4.624673709718717e-05" id=2284 pbc="T T T"
Si       0.09386680      -0.02613060       0.12239510       0.00504579      -0.00614617       0.00051642
Si       3.95215124       3.62009786      -0.04424463      -0.00412644       0.00541539      -0.00103453
Si       3.96277394       0.14502269       3.57562185      -0.00593081      -0.00448944       0.00201944
Si       0.10253079       3.57677034       3.57633534       0.00501145       0.00522023      -0.00150134
4
Lattice="7.145614025115539 -0.29691751035892777 0.045511615964910906 0.1183176045944216 7.346740259970556 0.376889926268118 -0.19317986091192135 -0.12200143670176708 7.306012447895613" Properties=species:S:1:pos:R:3:dft_force:R:3 dft_energy=-16.842208560087887 volume=384.214298594646 dft_virial="-0.00011964000920905992 -0.0001064259036351571 8.379374221115349e-06 -0.00010642590363515712 -0.0002062968760174291 -3.125532751952128e-05 8.379374221115344e-06 -3.125532751952127e-05 -0.00014915360458645098" id=2299 pbc="T T T"
Si       0.09386810      -0.02612658       0.12239265       0.01048947      -0.00334296      -0.00332772
Si       3.95215430       3.62009586      -0.04424616      -0.01114546       0.00248869      -0.00689804
Si       3.96277254       0.14502227       3.57562654      -0.01372949      -0.00816861       0.00621769
Si       0.10252970       3.57676918       3.57633364       0.01438553       0.00902284       0.00400809
2
Lattice="6.848598022230995 0.0 0.0 4.051440530368928 6.440600482745918 0.0 3.734752667499642 2.2406444865165263 5.77138232160157" Properties=species:S:1:pos:R:3:dft_force:R:3 dft_energy=-8.45118531636999 volume=254.5703860504788 dft_virial="-0.0005942083253864123 0.011083318679459334 0.011211932655399501 0.011083318679459334 -2.1746066102339173e-05 0.006508670273566084 0.011211932655399505 0.006508670273566087 -0.0003771469991363242" id=236 pbc="T T T"
Si       0.00000000       0.00000000       0.00000000       0.02609099      -0.01614557       0.00636736
Si       3.61065014       2.08460853       1.47403989      -0.02609099       0.01614557      -0.00636736
2
Lattice="7.221652635945619 0.0 0.0 3.8225644610587524 6.097671882910079 0.0 4.097827637550116 2.5967728233328757 5.71881769971898" Properties=species:S:1:pos:R:3:dft_force:R:3 dft_energy=-8.453481105641393 volume=251.82967134471772 dft_virial="-0.0001104204918237003 0.010876440939488427 0.012426342008858778 0.010876440939488427 -0.0003460304626622932 0.008040299538489674 0.012426342008858778 0.008040299538489674 -0.0004361070924256425" id=240 pbc="T T T"
Si       0.00000000       0.00000000       0.00000000      -0.00926582      -0.00319097      -0.00401507
Si       3.57710399       2.06524198       1.46034584       0.00926582       0.00319097       0.00401508
2
Lattice="6.908776350669703 0.0 0.0 3.870680667643974 5.939201339825087 0.0 3.261243992452163 1.804448453799783 5.615621645779291" Properties=species:S:1:pos:R:3:dft_force:R:3 dft_energy=-8.445242971941784 volume=230.42363400484956 dft_virial="-0.0007539456683105821 0.012752502647526049 0.01118507824477216 0.012752502647526053 -0.000791057474456915 0.006191136022061016 0.011185078244772162 0.006191136022061015 -0.000751900099790055" id=308 pbc="T T T"
Si       0.00000000       0.00000000       0.00000000      -0.00337288      -0.00392924      -0.00728753
Si       3.41417981       1.97117910       1.39383098       0.00337288       0.00392924       0.00728754
4
Lattice="7.226742329803379 -0.021167578212383104 0.15286640908432475 0.07642611806919504 7.168655380164056 0.1277510985112922 -0.15789419551424283 -0.26542238990285233 7.3477320071380205" Properties=species:S:1:pos:R:3:dft_force:R:3 dft_energy=-16.843395625516713 volume=381.08407523441326 dft_virial="-0.00015696362146918211 5.108621820612002e-06 3.420579947179726e-05 5.108621820612002e-06 -0.0001072211760448392 8.417020499460501e-06 3.420579947179726e-05 8.417020499460501e-06 -0.00019091329629808364" id=2292 pbc="T T T"
Si       0.09386317      -0.02612881       0.12239291       0.00935731      -0.00329758      -0.00616697
Si       3.95215154       3.62009779      -0.04424465      -0.00842299       0.00105910      -0.00399943
Si       3.96276740       0.14502367       3.57562541      -0.00999750      -0.00142855       0.00573254
Si       0.10253149       3.57676897       3.57632958       0.00906321       0.00366701       0.00443389
2
Lattice="6.96628260636819 0.0 0.0 3.353279323899812 5.826758855957604 0.0 3.50651910507184 1.6476616566918323 5.5981813633751205" Properties=species:S:1:pos:R:3:dft_force:R:3 dft_energy=-8.44251256306273 volume=227.2349336662624 dft_virial="-0.0006856015248636143 0.011337849248529302 0.01242031936494138 0.011337849248529305 -0.0010802773099624543 0.0058968008159724795 0.01242031936494138 0.005896800815972477 -0.0008432012936921545" id=298 pbc="T T T"
Si       0.00000000       0.00000000       0.00000000      -0.01574532       0.01763805      -0.00110844
Si       3.43223263       1.98160172       1.40120240       0.01574532      -0.01763805       0.00110844
2
Lattice="5.245730735953473 -0.019053371521413037 0.04855704189557406 -2.718636725767293 4.312611187669462 -0.14197884650359963 -0.1747227735718727 -0.2034037138831554 8.947660183476653" Properties=species:S:1:pos:R:3:dft_force:R:3 dft_energy=-8.425258976941599 volume=201.86909404040958 dft_virial="8.75849352733562e-05 -3.9411132102791426e-05 2.6732714188399874e-05 -3.9411132102791447e-05 2.8612261897514946e-05 -2.3000235151433143e-05 2.6732714188399874e-05 -2.3000235151433133e-05 0.00012949134862580352" id=2376 pbc="T T T"
Si       0.09386566      -0.02612575       0.12239879      -0.00244076       0.00046574      -0.00327750
Si       0.28780525       2.88224819       4.35189446       0.00244076      -0.00046574       0.00327750
4
Lattice="7.119567117357588 -0.038242519864880434 -0.1441516347044331 -0.01664629507564847 7.2921617947514745 -0.16326710262630134 -0.005052825301069369 0.1170379954463925 7.329711163073843" Properties=species:S:1:pos:R:3:dft_force:R:3 dft_energy=-16.841569181331778 volume=380.66318913769214 dft_virial="-0.00011432056794658436 -4.096657665851082e-05 -3.0515520359967255e-05 -4.096657665851082e-05 -0.00017721754278150038 2.083928482086147e-05 -3.0515520359967255e-05 2.083928482086147e-05 -0.00018575325175668173" id=2309 pbc="T T T"
Si       0.09386347      -0.02613024       0.12239858       0.01119735      -0.00335817      -0.00384064
Si       3.95215492       3.62009722      -0.04424694      -0.01181648       0.00320422      -0.00563509
Si       3.96277367       0.14502348       3.57562480      -0.01227025      -0.00522964       0.00350778
Si       0.10252581       3.57677120       3.57633122       0.01288937       0.00538359       0.00596795
2
Lattice="4.947990060894658 -0.05932685564147377 -0.10360011517965617 -2.4762087312187604 4.4900573589431 -0.039018649281525486 0.22412682851102655 0.08362605019306421 8.646460156876836" Properties=species:S:1:pos:R:3:dft_force:R:3 dft_energy=-8.425633967664005 volume=190.96848323858174 dft_virial="-8.741745120158325e-05 2.033505175561306e-05 -2.7813914301703517e-06 2.033505175561305e-05 -1.3369963768783764e-05 -1.564926458030077e-05 -2.781391430170349e-06 -1.564926458030077e-05 -3.926281513380212e-05" id=2373 pbc="T T T"
Si       0.09386317      -0.02612590       0.12239312       0.00011440       0.00105488      -0.00129219
Si       0.28780570       2.88224819       4.35189300      -0.00011440      -0.00105488       0.00129219
2
Lattice="6.968024933855095 0.0 0.0 3.218687360125591 6.116287574963768 0.0 3.8326461499336313 1.9552674958061658 5.708102952592352" Properties=species:S:1:pos:R:3:dft_force:R:3 dft_energy=-8.453590327449174 volume=243.27046788628627 dft_virial="-0.0005147954592766255 0.009475970718093973 0.012281643228411165 0.009475970718093973 -0.0004189763691656962 0.006119988287098575 0.012281643228411165 0.006119988287098573 -0.0005171022163247251" id=267 pbc="T T T"
Si       0.00000000       0.00000000       0.00000000       0.00432096      -0.00241664       0.00416745
Si       3.52022999       2.03240784       1.43712908      -0.00432096       0.00241664      -0.00416744
2
Lattice="7.273397116690121 0.0 0.0 3.599726066716757 6.34717242314442 0.0 3.687207158204058 1.9749830084643862 5.814638152594254" Properties=species:S:1:pos:R:3:dft_force:R:3 dft_energy=-8.460848641800979 volume=268.4357102050629 dft_virial="-0.00010085764075073577 0.008900685276851563 0.010002271628772128 0.008900685276851563 2.410047139705451e-05 0.005296531011686125 0.010002271628772128 0.005296531011686125 -0.00021131147597444556" id=251 pbc="T T T"
Si       0.00000000       0.00000000       0.00000000      -0.00297431      -0.01392298      -0.00695554
Si       3.54722664       2.04799069       1.44814726       0.00297431       0.01392298       0.00695554
2
Lattice="6.98165552839202 0.0 0.0 2.991067958688292 5.98105121458105 0.0 3.870395318999156 2.2891216307915516 5.655596912219625" Properties=species:S:1:pos:R:3:dft_force:R:3 dft_energy=-8.447951656636985 volume=236.1643757615342 dft_virial="-0.0005729548030439165 0.009226597655073885 0.012925141961064066 0.009226597655073887 -0.0006744103186595415 0.0076483778507097575 0.01292514196106407 0.007648377850709758 -0.0005831113860339207" id=306 pbc="T T T"
Si       0.00000000       0.00000000       0.00000000      -0.00087167      -0.00436495      -0.01210578
Si       3.43223533       1.98160013       1.40120240       0.00087167       0.00436495       0.01210578
2
Lattice="5.104857719383481 -0.07885583343393263 0.1113292273102043 -2.6576854993436134 4.464668586102573 -0.07627879502051921 -0.05771348306531328 -0.17421723403901282 8.94461566461453" Properties=species:S:1:pos:R:3:dft_force:R:3 dft_energy=-8.424908786519381 volume=201.99867759684997 dft_virial="9.843320496326489e-05 -2.46470937231916e-05 4.419743265848696e-05 -2.4647093723191595e-05 4.2576470378652546e-05 7.739821413943388e-06 4.419743265848696e-05 7.73982141394339e-06 8.539197470120252e-05" id=2361 pbc="T T T"
Si       0.09386334      -0.02612548       0.12239885      -0.00185674       0.00005107      -0.00523327
Si       0.28780563       2.88224793       4.35188928       0.00185674      -0.00005107       0.00523326
2
Lattice="6.716691359279868 0.0 0.0 3.524743623817731 5.855883314990337 0.0 3.4254687515866413 2.440738137222526 5.417848578754332" Properties=species:S:1:pos:R:3:dft_force:R:3 dft_energy=-8.42734502106891 volume=213.0956918295692 dft_virial="-0.0012028580481637738 0.013199596481779445 0.013819408080362654 0.013199596481779449 -0.0011846800267501462 0.009909291321492897 0.013819408080362654 0.009909291321492895 -0.001475799142356711" id=327 pbc="T T T"
Si       0.00000000       0.00000000       0.00000000       0.00078520      -0.00326555       0.01527171
Si       3.39732258       1.96144458       1.38695298      -0.00078520       0.00326555      -0.01527171
2
Lattice="7.029072536311131 0.0 0.0 3.970161520022649 6.160996605346289 0.0 3.7853274077730017 2.433649774529055 5.772024828483944" Properties=species:S:1:pos:R:3:dft_force:R:3 dft_energy=-8.454751873155937 volume=249.96383845031727 dft_virial="-0.00039367329735813116 0.011367871620716301 0.011477149640666711 0.011367871620716298 -0.00029325692989070766 0.007428644772514641 0.011477149640666704 0.007428644772514637 -0.0003269238019005512" id=260 pbc="T T T"
Si       0.00000000       0.00000000       0.00000000       0.00519158      -0.01204427      -0.01376326
Si       3.52022480       2.03240043       1.43712451      -0.00519158       0.01204428       0.01376327
2
Lattice="6.8154201006609405 0.0 0.0 3.362363237380888 5.9351214211220205 0.0 3.341306019174183 2.224173633614288 5.525130220575463" Properties=species:S:1:pos:R:3:dft_force:R:3 dft_energy=-8.440423925580607 volume=223.49342819672748 dft_virial="-0.0009310986070798586 0.011550045348370725 0.012323862319711922 0.011550045348370725 -0.0008978773966498013 0.008244525025361753 0.012323862319711922 0.008244525025361755 -0.0010882247627796832" id=304 pbc="T T T"
Si       0.00000000       0.00000000       0.00000000       0.00236980      -0.00312466       0.01019269
Si       3.43223490       1.98160225       1.40120618      -0.00236980       0.00312466      -0.01019269
4
Lattice="7.074711822173021 -0.13957674003754283 -0.035435860830063746 -0.11219009204627756 7.69731877351506 0.02833338188244153 -0.04032291935548095 0.07872948634524014 7.165553527011311" Properties=species:S:1:pos:R:3:dft_force:R:3 dft_energy=-16.840299379602605 volume=390.07110567484364 dft_virial="-0.00016068171149683573 -4.419216205470377e-05 1.4473804551809838e-05 -4.419216205470379e-05 -0.00011356730326060148 -3.9765066543222e-05 1.4473804551809838e-05 -3.976506654322198e-05 -6.13755961412897e-05" id=2327 pbc="T T T"
Si       0.09386706      -0.02612386       0.12239484       0.01248682      -0.00784701      -0.00068781
Si       3.95215566       3.62009238      -0.04424510      -0.01242317       0.00753785      -0.00326381
Si       3.96277360       0.14502289       3.57562238      -0.01812588      -0.01275635       0.00252234
Si       0.10253240       3.57676722       3.57632965       0.01806224       0.01306550       0.00142928
2
Lattice="4.958487829667656 -0.07428643787006502 0.06174047053962955 -2.400145176003836 4.411779989573177 0.02428825303732885 0.06023794929793959 0.11429158088042889 8.730473865487108" Properties=species:S:1:pos:R:3:dft_force:R:3 dft_energy=-8.425103633097674 volume=189.38188253191433 dft_virial="-0.00014215144311106051 2.566915980625213e-06 3.6079402217772475e-06 2.566915980625212e-06 -6.575457783271437e-05 1.1716123916572998e-05 3.6079402217772467e-06 1.1716123916572994e-05 -6.767259228186654e-05" id=2356 pbc="T T T"
Si       0.09386510      -0.02612724       0.12239552      -0.00015217       0.00103849      -0.00529143
Si       0.28781041       2.88224713       4.35189321       0.00015217      -0.00103849       0.00529143
2
Lattice="5.026014547114584 0.057833820824929445 0.025909694744041502 -2.6147154327354953 4.341794114828491 -0.004144679617357963 -0.0763200099472973 0.012948063255233344 8.904760622550244" Properties=species:S:1:pos:R:3:dft_force:R:3 dft_energy=-8.425306013897236 volume=195.6735425944765 dft_virial="-1.944101492917086e-05 -1.9872589325823668e-05 1.4370315822011438e-05 -1.987258932582367e-05 -8.224966051318493e-06 3.0626326867648173e-06 1.4370315822011438e-05 3.062632686764818e-06 1.0417371442533302e-05" id=2362 pbc="T T T"
Si       0.09386752      -0.02612907       0.12239930      -0.00161184       0.00076834      -0.00536133
Si       0.28780984       2.88224732       4.35188871       0.00161185      -0.00076834       0.00536133
2
Lattice="6.8346858585015005 0.0 0.0 3.64318976758315 5.8938252361205725 0.0 3.2628767158238396 1.9250375469905272 5.595133235136099" Properties=species:S:1:pos:R:3:dft_force:R:3 dft_energy=-8.44228056494707 volume=225.38564118217718 dft_virial="-0.0009320614281758577 0.012456973663084656 0.011648055204334172 0.01245697366308466 -0.0009633032990144993 0.006901384164626562 0.011648055204334174 0.006901384164626563 -0.0008568856843576654" id=326 pbc="T T T"
Si       0.00000000       0.00000000       0.00000000      -0.00094221      -0.00006466      -0.00695144
Si       3.39732971       1.96144955       1.38695519       0.00094221       0.00006466       0.00695145
2
Lattice="5.148870725839781 0.004447375948000519 0.03330304033676612 -2.583796168521377 4.391393813113327 -0.042065794862962046 -0.1215910448792821 0.4444249207154713 8.769273967942318" Properties=species:S:1:pos:R:3:dft_force:R:3 dft_energy=-8.425744832105766 volume=198.45618031774572 dft_virial="8.451434909417793e-05 8.650855645761528e-06 -2.8550661279427076e-05 8.650855645761526e-06 4.625583600955663e-05 1.55744748070887e-05 -2.8550661279427076e-05 1.55744748070887e-05 1.666135758007381e-05" id=2348 pbc="T T T"
Si       0.09386364      -0.02612730       0.12239958       0.00041936       0.00253616      -0.00309229
Si       0.28780835       2.88224475       4.35189291      -0.00041936      -0.00253616       0.00309229
2
Lattice="6.98594898614717 0.0 0.0 3.407896188353746 6.244171010995567 0.0 3.715696669258916 2.5090933106024895 5.6310191342427425" Properties=species:S:1:pos:R:3:dft_force:R:3 dft_energy=-8.452471067576772 volume=245.63327673218515 dft_virial="-0.0005197541700126939 0.00971068185288853 0.011800886410137636 0.00971068185288853 -0.00018545928217493236 0.007979391256732011 0.011800886410137636 0.007979391256732011 -0.0006025095322069671" id=282 pbc="T T T"
Si       0.00000000       0.00000000       0.00000000       0.00816177      -0.02139883      -0.00554178
Si       3.47275728       2.00499874       1.41774422      -0.00816177       0.02139883       0.00554178
2
Lattice="6.887031272153634 0.0 0.0 3.354940393163358 5.901952948182588 0.0 3.7937725938239546 1.9022644574626622 5.575476303987742" Properties=species:S:1:pos:R:3:dft_force:R:3 dft_energy=-8.442414986509243 volume=226.6260202510908 dft_virial="-0.0007278049229090112 0.011401624904340942 0.013728847834264953 0.011401624904340942 -0.0009581556247381644 0.006853376540713554 0.013728847834264953 0.006853376540713553 -0.0009655617580066991" id=275 pbc="T T T"
Si       0.00000000       0.00000000       0.00000000      -0.00721045       0.01236061       0.01559670
Si       3.49552409       2.01814038       1.42704316       0.00721045      -0.01236061      -0.01559670
2
Lattice="4.992606986025864 -0.09655147452932454 -0.17218706346880489 -2.446895923183187 4.5284966748866 0.2539881484515342 0.08350601478962798 0.14253393465544723 8.681152391579598" Properties=species:S:1:pos:R:3:dft_force:R:3 dft_energy=-8.424896696770286 volume=194.1636526463143 dft_virial="-8.170303017829598e-05 4.179704069104553e-05 -1.9127070699437575e-05 4.179704069104551e-05 7.179064123688377e-05 2.8652705206742302e-05 -1.912707069943757e-05 2.8652705206742302e-05 -6.788208144227562e-05" id=2352 pbc="T T T"
Si       0.09386385      -0.02612529       0.12239372       0.00065851       0.00175879      -0.00701761
Si       0.28781202       2.88224396       4.35188845      -0.00065851      -0.00175879       0.00701761
2
Lattice="4.956405445964625 -0.07872442187922615 -0.020310001599766682 -2.554234823705892 4.442019991731798 0.03381770724680795 0.14976827869204581 -0.14944749768239057 8.789133874573722" Properties=species:S:1:pos:R:3:dft_force:R:3 dft_energy=-8.425181362711523 volume=191.76862962119654 dft_virial="-0.0001009948294046945 -2.244161108325808e-05 5.7356988248133295e-06 -2.2441611083258072e-05 -7.253739829070758e-05 -3.434111916617882e-06 5.7356988248133295e-06 -3.4341119166178833e-06 -1.4253840101962089e-05" id=2328 pbc="T T T"
Si       0.09386536      -0.02612665       0.12239382      -0.00091187      -0.00021008      -0.00523980
Si       0.28780931       2.88224623       4.35189243       0.00091187       0.00021008       0.00523980
2
Lattice="7.127351522874543 0.0 0.0 2.981700586288522 6.1675482858203665 0.0 3.78248714940769 1.7581709507338226 5.720582703919381" Properties=species:S:1:pos:R:3:dft_force:R:3 dft_energy=-8.454737664606554 volume=251.46700296197307 dft_virial="-0.00027487377208891924 0.008125593592405379 0.011477728136791113 0.008125593592405379 -0.0002680011805095146 0.005169027927709089 0.011477728136791113 0.00516902792770909 -0.00041860795516070453" id=268 pbc="T T T"
Si       0.00000000       0.00000000       0.00000000      -0.00230563      -0.00402063       0.00361001
Si       3.52022826       2.03240326       1.43712479       0.00230563       0.00402063      -0.00361001
4
Lattice="7.412827043905041 0.032921674707555394 0.20584901948842116 0.20807014688352257 7.3499386970255305 -0.03451904130344031 -0.14650506182551953 0.2754115199921467 7.383283462515128" Properties=species:S:1:pos:R:3:dft_force:R:3 dft_energy=-16.845073997836007 volume=402.523038488258 dft_virial="2.1162837070306297e-05 1.7779891024915629e-06 6.183817531947939e-05 1.7779891024915629e-06 5.11887587288978e-06 5.556024135986783e-06 6.183817531947939e-05 5.556024135986781e-06 3.3422201511427146e-05" id=2293 pbc="T T T"
Si       0.09386517      -0.02612597       0.12239263       0.00402684      -0.00361657      -0.00248551
Si       3.95215487       3.62009452      -0.04424624      -0.00451230       0.00580574      -0.00503010
Si       3.96276731       0.14502643       3.57562393      -0.00243552      -0.00326423       0.00333196
Si       0.10252607       3.57677291       3.57633147       0.00292099       0.00107505       0.00418365
2
Lattice="7.169108801050398 0.0 0.0 2.9701430213103106 6.036688531142281 0.0 3.7149880219621814 1.8948661796847523 5.8362641783644715" Properties=species:S:1:pos:R:3:dft_force:R:3 dft_energy=-8.455257551621033 volume=252.57995528480714 dft_virial="-0.00020465486666458162 0.008239144788270604 0.010966586239920435 0.008239144788270604 -0.00048507022419371024 0.0055489271870654494 0.010966586239920431 0.005548927187065448 -0.00022049261388711375" id=255 pbc="T T T"
Si       0.00000000       0.00000000       0.00000000      -0.00414133       0.01059067      -0.00200929
Si       3.54723325       2.04799450       1.44815223       0.00414133      -0.01059067       0.00200929
4
Lattice="7.26769210910892 0.005775910105396174 -0.062320824329763366 0.043229998436560245 7.311867480833847 0.1642188253944466 0.1802280371017 0.2917953510063459 7.219065449702915" Properties=species:S:1:pos:R:3:dft_force:R:3 dft_energy=-16.844268644248743 volume=383.35549061802357 dft_virial="-6.728378689441574e-05 6.236518580555441e-06 3.401666335125729e-05 6.236518580555443e-06 -0.00014784517574364397 5.924729753246784e-06 3.401666335125727e-05 5.924729753246781e-06 -0.00014200105901953204" id=2307 pbc="T T T"
Si       0.09386338      -0.02612756       0.12239834       0.00720233      -0.00323740      -0.00140253
Si       3.95215612       3.62009675      -0.04424928      -0.00650382       0.00411965      -0.00375240
Si       3.96277424       0.14502418       3.57562233      -0.00797144      -0.00323535       0.00315963
Si       0.10253032       3.57677317       3.57633071       0.00727293       0.00235310       0.00199529
2
Lattice="6.940157142695238 0.0 0.0 3.2950077291208517 5.929490037270635 0.0 3.273561227332474 2.4252499419050935 5.596183922861391" Properties=species:S:1:pos:R:3:dft_force:R:3 dft_energy=-8.445162201187298 volume=230.29188110247196 dft_virial="-0.0006638304051041459 0.010757749516777375 0.011361951389148134 0.010757749516777375 -0.0008219393563380045 0.00861009700942829 0.011361951389148136 0.00861009700942829 -0.0008242446361242872" id=293 pbc="T T T"
Si       0.00000000       0.00000000       0.00000000      -0.00194567       0.00235798       0.00261301
Si       3.45169995       1.99283640       1.40914710       0.00194567      -0.00235798      -0.00261301
4
Lattice="7.331430587080117 0.05488429849509105 0.12649573454944205 0.1506867989721814 7.329439439354382 0.1360468639175706 -0.025354474311365206 0.23642979595909638 7.222742951227744" Properties=species:S:1:pos:R:3:dft_force:R:3 dft_energy=-16.844921668656827 volume=387.8483601576217 dft_virial="-6.009684814980947e-05 -7.877086387471532e-06 6.821346654076581e-05 -7.877086387471532e-06 -0.00010568740243430682 -1.6560312289866578e-05 6.821346654076584e-05 -1.6560312289866585e-05 -5.710426396726587e-05" id=2300 pbc="T T T"
Si       0.09386797      -0.02613077       0.12239355       0.00614891      -0.00388623      -0.00120759
Si       3.95215245       3.62009756      -0.04424282      -0.00608951       0.00503303      -0.00401869
Si       3.96277101       0.14502658       3.57562592      -0.00571822      -0.00249435       0.00345218
Si       0.10252739       3.57677085       3.57633445       0.00565883       0.00134755       0.00177410
4
Lattice="7.195905382059249 -0.10952451996392544 0.2784081342970107 0.11917264897403101 7.475083636443829 0.06375571227345296 -0.2832986699184973 -0.06479113101165791 7.456657257153306" Properties=species:S:1:pos:R:3:dft_force:R:3 dft_energy=-16.84255526386965 volume=401.81001321566816 dft_virial="-3.7252107090437885e-05 -3.103121232506e-05 6.766179139255198e-05 -3.103121232505999e-05 -1.1331355027523754e-05 -2.3348360092452574e-05 6.766179139255198e-05 -2.3348360092452588e-05 -1.6475735544178548e-05" id=2320 pbc="T T T"
Si       0.09386784      -0.02612654       0.12239675       0.01001486      -0.00620785      -0.00782104
Si       3.95215542       3.62009529      -0.04424280      -0.00819036       0.00396776      -0.00555156
Si       3.96277320       0.14502115       3.57562399      -0.01125037      -0.00534827       0.00913270
Si       0.10253136       3.57677083       3.57633515       0.00942587       0.00758835       0.00423990
2
Lattice="6.8114044326461105 0.0 0.0 3.655489994928339 5.867450328599171 0.0 4.120077272941461 1.8291301667135202 5.822138475582894" Properties=species:S:1:pos:R:3:dft_force:R:3 dft_energy=-8.441960836597385 volume=232.68512457847683 dft_virial="-0.0008139640412218841 0.012153996751190542 0.013890136498447283 0.012153996751190537 -0.0010130905474755186 0.0060340643850517045 0.013890136498447276 0.006034064385051705 -0.00035377085639553716" id=287 pbc="T T T"
Si       0.00000000       0.00000000       0.00000000       0.00470597       0.02103490      -0.02044112
Si       3.47276168       2.00499738       1.41774894      -0.00470597      -0.02103490       0.02044112
2
Lattice="6.863353003812073 0.0 0.0 3.49624466413225 6.141262195426822 0.0 4.127262011667288 2.3496514482894395 5.4585324924914005" Properties=species:S:1:pos:R:3:dft_force:R:3 dft_energy=-8.440944458491186 volume=230.0752359071907 dft_virial="-0.0007482519089608636 0.011206608340019545 0.014880521732768671 0.011206608340019542 -0.00041359023216104714 0.008338641421374006 0.014880521732768668 0.008338641421374006 -0.0011000891169351185" id=297 pbc="T T T"
Si       0.00000000       0.00000000       0.00000000       0.00458210      -0.02171357       0.00919375
Si       3.45169702       1.99283525       1.40914746      -0.00458210       0.02171357      -0.00919374
2
Lattice="6.872701478950598 0.0 0.0 2.5101742339457753 5.88353378764586 0.0 2.9900493963071186 1.7221036379192152 5.493411167573619" Properties=species:S:1:pos:R:3:dft_force:R:3 dft_energy=-8.43412750067443 volume=222.1303179794047 dft_virial="-0.000798273127139869 0.008431603202484666 0.010973852631598315 0.008431603202484666 -0.0008787440340916503 0.0062629377180062175 0.010973852631598315 0.0062629377180062175 -0.0010324609059822567" id=311 pbc="T T T"
Si       0.00000000       0.00000000       0.00000000       0.00121175      -0.00797279       0.00837207
Si       3.41418253       1.97117736       1.39383223      -0.00121175       0.00797279      -0.00837207
2
Lattice="7.458267133736135 0.0 0.0 3.6298558600477904 6.117332593510686 0.0 3.5986942762527114 2.3733901878669883 6.219485518629581" Properties=species:S:1:pos:R:3:dft_force:R:3 dft_energy=-8.456855494081891 volume=283.76216484960634 dft_virial="0.00010892955245691691 0.008631947391063852 0.00843597709488322 0.008631947391063854 -0.0002583020111659186 0.00576928762826719 0.00843597709488322 0.005769287628267188 0.00026678642561749066" id=235 pbc="T T T"
Si       0.00000000       0.00000000       0.00000000      -0.00721915       0.01151939      -0.01996917
Si       3.61064369       2.08460918       1.47403672       0.00721917      -0.01151944       0.01996920
2
Lattice="6.9445035127818775 0.0 0.0 3.78445624402955 5.904853677783889 0.0 2.5856706823507 2.2702621640677862 5.708528140970393" Properties=species:S:1:pos:R:3:dft_force:R:3 dft_energy=-8.443538372530483 volume=234.08548682649572 dft_virial="-0.0005282953868636718 0.012207583328558827 0.008395623792130774 0.012207583328558827 -0.0008807443213975758 0.00759847876681571 0.008395623792130774 0.0075984787668157095 -0.0004716273326975062" id=271 pbc="T T T"
Si       0.00000000       0.00000000       0.00000000       0.00146691       0.01800813      -0.00575754
Si       3.49552090       2.01813919       1.42704070      -0.00146691      -0.01800812       0.00575754
4
Lattice="7.351459076179099 0.11091658671363101 0.14688361176280457 0.12188699488765974 7.319283162989365 0.059723546949555215 -0.07893183821866508 0.04405541191053553 7.265288982190757" Properties=species:S:1:pos:R:3:dft_force:R:3 dft_energy=-16.844937780853336 volume=390.89394749757804 dft_virial="-7.629912558264026e-05 3.0644330915395872e-06 4.550313264566886e-05 3.0644330915395872e-06 -6.003697219729e-05 1.1751423637466952e-05 4.550313264566886e-05 1.1751423637466952e-05 -2.8419692962114963e-05" id=2315 pbc="T T T"
Si       0.09386704      -0.02612854       0.12239293       0.00651632      -0.00427988      -0.00235662
Si       3.95215714       3.62009558      -0.04424556      -0.00560028       0.00450756      -0.00387107
Si       3.96277080       0.14502042       3.57562499      -0.00587222      -0.00265859       0.00348929
Si       0.10252930       3.57676731       3.57633649       0.00495619       0.00243090       0.00273840
2
Lattice="5.039405996810438 0.20531989617352595 -0.04382280552185535 -2.3894826609072926 4.408648732281932 -0.20330656306308842 -0.3041513819639952 0.17137143877615513 8.978629260871417" Properties=species:S:1:pos:R:3:dft_force:R:3 dft_energy=-8.424967429034977 volume=204.0303918667666 dft_virial="9.43702056307448e-05 2.1260233338614442e-05 -1.2370626626944412e-05 2.126023333861445e-05 8.185465709989283e-05 1.543152301135446e-05 -1.237062662694441e-05 1.5431523011354452e-05 0.0001686217162200711" id=2351 pbc="T T T"
Si       0.09386561      -0.02612943       0.12239482      -0.00048295       0.00110052      -0.00132914
Si       0.28781026       2.88224738       4.35188881       0.00048295      -0.00110052       0.00132914
2
Lattice="7.085265432353002 0.0 0.0 3.70633496603752 5.9431773235913 0.0 3.471829402602085 1.902245560201416 5.740186722736248" Properties=species:S:1:pos:R:3:dft_force:R:3 dft_energy=-8.453070648737347 volume=241.71345869994434 dft_virial="-0.00040286119606062023 0.011386710212557698 0.010981878370493853 0.011386710212557698 -0.0007248879137975033 0.006107438321181261 0.010981878370493853 0.006107438321181261 -0.00045995248160813886" id=276 pbc="T T T"
Si       0.00000000       0.00000000       0.00000000      -0.01229594       0.01216500      -0.00464286
Si       3.49552209       2.01813980       1.42703912       0.01229594      -0.01216500       0.00464287
2
Lattice="5.090616270876771 0.16605758560549122 -0.05215714023833737 -2.4968159867379307 4.2536247850866005 0.19302108612293029 0.13607628695333104 -0.13897452211614708 8.62248716684888" Properties=species:S:1:pos:R:3:dft_force:R:3 dft_energy=-8.424780371854288 volume=190.4356659770928 dft_virial="-3.887158451561856e-05 6.063238469041906e-05 1.6038753412720637e-05 6.0632384690419044e-05 -0.00011623286559390559 3.578360398312119e-05 1.6038753412720633e-05 3.57836039831212e-05 -8.039884193283237e-05" id=2368 pbc="T T T"
Si       0.09386600      -0.02612715       0.12239888      -0.00026462      -0.00000414      -0.00761214
Si       0.28780937       2.88224689       4.35189351       0.00026462       0.00000414       0.00761214
2
Lattice="7.245946955003807 0.0 0.0 4.160972836004486 6.216898483564968 0.0 3.4910460275634048 2.3523273004819094 5.701878194737835" Properties=species:S:1:pos:R:3:dft_force:R:3 dft_energy=-8.45559741304227 volume=256.8543124614261 dft_virial="-0.00010208389848559619 0.01131044117577639 0.010182649866150497 0.011310441175776384 -0.0001642242825394311 0.006973849014725582 0.010182649866150492 0.006973849014725583 -0.00043358493672886455" id=259 pbc="T T T"
Si       0.00000000       0.00000000       0.00000000      -0.00577760      -0.01796713      -0.00043759
Si       3.54723373       2.04799723       1.44815163       0.00577760       0.01796713       0.00043759
2
Lattice="7.002663613719485 0.0 0.0 3.416322477143452 6.004434685647168 0.0 3.9172019453800107 2.0702951250121364 5.467567273093236" Properties=species:S:1:pos:R:3:dft_force:R:3 dft_energy=-8.44320995029405 volume=229.89499957238482 dft_virial="-0.0005529258320270423 0.011110221840815367 0.014094256825553347 0.011110221840815362 -0.0006560511525836106 0.007435859163379839 0.01409425682555334 0.007435859163379838 -0.0011874727770513072" id=281 pbc="T T T"
Si       0.00000000       0.00000000       0.00000000      -0.01375186      -0.00895520       0.02230063
Si       3.47275690       2.00499794       1.41774565       0.01375186       0.00895520      -0.02230063
2
Lattice="6.76813726329668 0.0 0.0 2.8622037547978114 5.874243894017201 0.0 2.9763451024513325 1.462481724561379 5.565160289073409" Properties=species:S:1:pos:R:3:dft_force:R:3 dft_energy=-8.435003416432984 volume=221.25791196801035 dft_virial="-0.0010159645032729275 0.009894149060170205 0.010880531652057502 0.0098941490601702 -0.0009954302990887228 0.005252787017091916 0.010880531652057497 0.005252787017091915 -0.0008649047591104368" id=312 pbc="T T T"
Si       0.00000000       0.00000000       0.00000000       0.00944796       0.00425179      -0.00309673
Si       3.41418382       1.97117922       1.39383334      -0.00944796      -0.00425179       0.00309673
4
Lattice="7.26075190094362 0.05964461308932959 -0.014087813772778885 -0.005758316755175908 7.445082457872838 -0.23068294984149695 0.13968946220087675 -0.03383618876830678 7.102962018311456" Properties=species:S:1:pos:R:3:dft_force:R:3 dft_energy=-16.84377027191449 volume=383.92257625448417 dft_virial="-7.432016735998864e-05 -3.106083946429644e-05 3.655348970401443e-05 -3.1060839464296454e-05 -0.0001607107884274611 1.211616598215131e-05 3.655348970401443e-05 1.2116165982151308e-05 -8.823390969931511e-05" id=2326 pbc="T T T"
Si       0.09386406      -0.02612482       0.12239631       0.00831392      -0.00641046      -0.00199828
Si       3.95215683       3.62009238      -0.04424735      -0.00835931       0.00625841       0.00253277
Si       3.96276882       0.14502586       3.57562442      -0.00855380      -0.00605160      -0.00038579
Si       0.10252732       3.57677090       3.57633402       0.00859919       0.00620365      -0.00014870
2
Lattice="7.001040338978432 0.0 0.0 3.534107216765252 6.16184698210237 0.0 3.799698774950781 1.9779385401233012 5.682328977978582" Properties=species:S:1:pos:R:3:dft_force:R:3 dft_energy=-8.455007096888709 volume=245.13191770609123 dft_virial="-0.000493595486301173 0.01028402200318332 0.012056310432019997 0.01028402200318332 -0.000319598224505171 0.006163741841072866 0.012056310432019997 0.006163741841072866 -0.0005482590181244232" id=274 pbc="T T T"
Si       0.00000000       0.00000000       0.00000000       0.00139820      -0.01079390      -0.00172132
Si       3.49552825       2.01814286       1.42704305      -0.00139821       0.01079390       0.00172131
2
Lattice="6.855816776027066 0.0 0.0 4.152986853401818 6.004750269909981 0.0 2.8515513686332965 2.3892752256705925 5.634131513170001" Properties=species:S:1:pos:R:3:dft_force:R:3 dft_energy=-8.442762006285434 volume=231.9429267270946 dft_virial="-0.0006717985946926557 0.013504095002691343 0.009646099630101752 0.013504095002691343 -0.0006917040965371164 0.008128080927840863 0.00964609963010175 0.00812808092784086 -0.000629731924473907" id=269 pbc="T T T"
Si       0.00000000       0.00000000       0.00000000       0.01131576      -0.00043876      -0.00048823
Si       3.49552241       2.01813936       1.42704101      -0.01131576       0.00043876       0.00048823
2
Lattice="7.096868350758204 0.0 0.0 3.1903603655174506 6.061523311872112 0.0 3.3591185776249057 2.5335425872028976 5.82006922547643" Properties=species:S:1:pos:R:3:dft_force:R:3 dft_energy=-8.454849608649376 volume=250.36676569553688 dft_virial="-0.0003198289466778024 0.00900048972816543 0.00996636542178348 0.00900048972816543 -0.00044015470660823633 0.007726199090109753 0.00996636542178348 0.007726199090109754 -0.0002591853375661721" id=261 pbc="T T T"
Si       0.00000000       0.00000000       0.00000000       0.00544890       0.00246618      -0.00773235
Si       3.52023105       2.03240436       1.43712642      -0.00544890      -0.00246618       0.00773235
2
Lattice="7.313449861901564 0.0 0.0 4.023712578942294 6.296775317126775 0.0 2.9172665946171574 2.3284789567891324 6.058989189138989" Properties=species:S:1:pos:R:3:dft_force:R:3 dft_energy=-8.456096442090029 volume=279.0234234720421 dft_virial="1.8786763513555598e-05 0.009568370643051452 0.00693928516388998 0.009568370643051454 -2.7547444584174917e-05 0.005740000885432095 0.006939285163889981 0.005740000885432094 0.000138151086495304" id=246 pbc="T T T"
Si       0.00000000       0.00000000       0.00000000       0.00418234      -0.00532578      -0.01706812
Si       3.57710867       2.06524351       1.46034970      -0.00418234       0.00532578       0.01706812
2
Lattice="5.108758699919807 0.22349930715682206 0.022496565904048665 -2.4419478642984664 4.170293796730635 0.13121851918284552 -0.1095091942850547 0.05020973967238802 8.875775889867167" Properties=species:S:1:pos:R:3:dft_force:R:3 dft_energy=-8.423566358696956 volume=193.91343452494132 dft_virial="-3.0343660363965086e-05 1.6084420622553132e-05 1.3192725013129973e-05 1.6084420622553136e-05 -0.00014397831302929122 1.0843681851790349e-05 1.3192725013129973e-05 1.0843681851790349e-05 -2.2368116224301992e-05" id=2349 pbc="T T T"
Si       0.09386300      -0.02612779       0.12239165      -0.00015132       0.00089197      -0.00907441
Si       0.28780614       2.88224713       4.35189085       0.00015132      -0.00089197       0.00907441
4
Lattice="7.565635778548043 0.07890695052560376 -0.00040379667831003455 -0.05471240900679509 7.5342773041880395 0.06767861363282485 -0.07058493682345429 -0.002502261950661967 7.391722110113689" Properties=species:S:1:pos:R:3:dft_force:R:3 dft_energy=-16.84312706696682 volume=421.37257274951173 dft_virial="0.00015942948861473423 6.582758490120139e-06 -6.897272348450373e-07 6.582758490120134e-06 0.00013277311479646816 7.448042962282783e-06 -6.897272348450371e-07 7.448042962282786e-06 0.00010286054248694179" id=2291 pbc="T T T"
Si       0.09386831      -0.02613053       0.12239516       0.00032630      -0.00449665      -0.00140673
Si       3.95215409       3.62009465      -0.04424580      -0.00126050       0.00339984      -0.00455195
Si       3.96277033       0.14502219       3.57562119      -0.00055880      -0.00241495       0.00325106
Si       0.10252883       3.57676620       3.57633602       0.00149300       0.00351174       0.00270765
2
Lattice="6.838926403925161 0.0 0.0 3.2795629975042853 5.932466355916921 0.0 4.531950640708145 1.7052926343145443 5.361512063526989" Properties=species:S:1:pos:R:3:dft_force:R:3 dft_energy=-8.427195150944643 volume=217.525663287076 dft_virial="-0.0008800222223615991 0.011557567109542463 0.017890468598109478 0.011557567109542463 -0.00086624210065822 0.006503429091965897 0.017890468598109478 0.006503429091965895 -0.00121642080074449" id=323 pbc="T T T"
Si       0.00000000       0.00000000       0.00000000      -0.00038707      -0.00805270       0.00613282
Si       3.39732718       1.96144425       1.38695347       0.00038707       0.00805270      -0.00613282
2
Lattice="5.023228013662994 -0.022841875558801534 0.09128873845033172 -2.4910819718607176 4.337492436764698 0.08266461423263836 -0.06015873197879529 -0.08594429061371012 8.754986712474347" Properties=species:S:1:pos:R:3:dft_force:R:3 dft_energy=-8.424861109105853 volume=190.33651894744193 dft_virial="-9.026182488022654e-05 1.3111001047138728e-05 6.842557417022556e-06 1.3111001047138728e-05 -0.00010136241966489693 1.986030161843763e-06 6.842557417022554e-06 1.9860301618437636e-06 -8.941030407009996e-05" id=2340 pbc="T T T"
Si       0.09386298      -0.02612571       0.12239299      -0.00109409       0.00053516      -0.00840540
Si       0.28780960       2.88224727       4.35189330       0.00109410      -0.00053516       0.00840540
2
Lattice="5.093914617751953 -0.07349424578136064 -0.04092239717399598 -2.539714319342358 4.502543913284177 0.09103103649871652 -0.03273793663645803 -0.15193210959104855 9.086234801750306" Properties=species:S:1:pos:R:3:dft_force:R:3 dft_energy=-8.423896009754618 volume=206.75087540265392 dft_virial="0.00013080673950040597 -2.0176367887772408e-05 1.099881628092464e-05 -2.0176367887772422e-05 0.00013299477551377572 -6.0814566566367016e-06 1.099881628092464e-05 -6.081456656636697e-06 6.452021996999976e-05" id=2364 pbc="T T T"
Si       0.09386512      -0.02612609       0.12239253      -0.00122288       0.00017185      -0.00668935
Si       0.28780716       2.88224740       4.35189272       0.00122288      -0.00017185       0.00668937
2
Lattice="7.2835109309091175 0.0 0.0 3.5086828414845366 6.283278893144698 0.0 3.4611543397240743 2.0977490661507 6.128485757098227" Properties=species:S:1:pos:R:3:dft_force:R:3 dft_energy=-8.461075693659467 volume=280.46604765342744 dft_virial="-1.7120332414545456e-05 0.008271859289542719 0.008360605301503302 0.008271859289542719 -5.653074376834037e-05 0.005097529562000844 0.008360605301503302 0.005097529562000844 0.0001935613273316189" id=230 pbc="T T T"
Si       0.00000000       0.00000000       0.00000000       0.00550796       0.00760011      -0.00614350
Si       3.64867753       2.10656477       1.48956524      -0.00550796      -0.00760011       0.00614350
2
Lattice="6.919364486145982 0.0 0.0 3.4817221188645013 5.973350580623199 0.0 3.632115972492843 1.8757648280170351 6.010251262658766" Properties=species:S:1:pos:R:3:dft_force:R:3 dft_energy=-8.452423739784232 volume=248.4144422593051 dft_virial="-0.0005633692048908612 0.010356247545352656 0.010748844160535172 0.010356247545352656 -0.0007094630230359547 0.005500889550157385 0.010748844160535172 0.005500889550157385 -2.8495378514624416e-05" id=253 pbc="T T T"
Si       0.00000000       0.00000000       0.00000000       0.00707199       0.02463460      -0.01330090
Si       3.54723010       2.04799738       1.44815201      -0.00707199      -0.02463460       0.01330090
2
Lattice="6.90674489508573 0.0 0.0 3.441537092824334 5.871044587688209 0.0 3.5786556204271798 2.1223910948158196 5.690855422252892" Properties=species:S:1:pos:R:3:dft_force:R:3 dft_energy=-8.44594272468255 volume=230.76309037367741 dft_virial="-0.0007890569473752069 0.011348252573642133 0.012235013999963075 0.011348252573642133 -0.0009663609454104242 0.007354217386320558 0.012235013999963075 0.007354217386320559 -0.0005912705913931067" id=319 pbc="T T T"
Si       0.00000000       0.00000000       0.00000000      -0.00406937       0.00473367      -0.02030560
Si       3.39732978       1.96144956       1.38695253       0.00406937      -0.00473368       0.02030560
2
Lattice="6.894199003344339 0.0 0.0 3.022550795924557 6.1134586549552035 0.0 3.336094154522465 2.3235751174957286 5.5935836597139055" Properties=species:S:1:pos:R:3:dft_force:R:3 dft_energy=-8.447966251863429 volume=235.75501110527682 dft_virial="-0.0006775607470821367 0.009239057344666736 0.011247003392075922 0.009239057344666733 -0.0004570574211708648 0.007824649927938573 0.011247003392075919 0.007824649927938573 -0.0007714316924066633" id=283 pbc="T T T"
Si       0.00000000       0.00000000       0.00000000       0.01205022      -0.01311235       0.00971880
Si       3.47275985       2.00499757       1.41774412      -0.01205022       0.01311235      -0.00971880
4
Lattice="7.155695184867103 -0.11369726201423408 0.057915589274342 0.25035843810039804 7.435324535774892 0.18404397996241806 -0.18265990675421964 -0.13854527082693835 7.204647992104957" Properties=species:S:1:pos:R:3:dft_force:R:3 dft_energy=-16.842915664633377 volume=383.79070140236206 dft_virial="-9.844530820901168e-05 -3.859873384932725e-05 2.7936994512796383e-05 -3.8598733849327265e-05 -0.00018466600395340008 -3.635411377107904e-05 2.7936994512796396e-05 -3.635411377107904e-05 -0.00012181254322454879" id=2279 pbc="T T T"
Si       0.09386570      -0.02612575       0.12239554       0.01166814      -0.00616095      -0.00162418
Si       3.95215746       3.62009522      -0.04424285      -0.01106986       0.00564253      -0.00380125
Si       3.96276867       0.14502446       3.57562747      -0.01168686      -0.00689695       0.00418844
Si       0.10253119       3.57676746       3.57633041       0.01108857       0.00741536       0.00123699
4
Lattice="7.395509404726359 -0.23554638679035633 -0.04424704903683383 0.37566859627377236 7.412898607833381 -0.24672324754350045 -0.15455493606846163 -0.1796688104496395 7.248131289431262" Properties=species:S:1:pos:R:3:dft_force:R:3 dft_energy=-16.84515449390327 volume=397.61507042460585 dft_virial="2.739707086025719e-06 -1.1284981713692817e-05 -1.587653587584791e-05 -1.1284981713692818e-05 -3.5454414776393404e-05 2.853439685418115e-06 -1.5876535875847912e-05 2.8534396854181145e-06 1.0521686839305165e-05" id=2290 pbc="T T T"
Si       0.09386631      -0.02612947       0.12239437       0.00418014      -0.00675758      -0.00288684
Si       3.95215489       3.62009592      -0.04424338      -0.00472476       0.00457555      -0.00031769
Si       3.96277424       0.14502080       3.57562167      -0.00320222      -0.00397021       0.00119062
Si       0.10252743       3.57676930       3.57633024       0.00374681       0.00615223       0.00201394
4
Lattice="7.147621783533909 -0.01902357054042769 0.16765277901633283 -0.15564215219974256 7.167190993595561 -0.052983479678113725 0.0915367839014501 -0.058044544185086464 7.127046747845163" Properties=species:S:1:pos:R:3:dft_force:R:3 dft_energy=-16.83788345957474 volume=364.95552342455835 dft_virial="-0.00035495660428707933 -3.916661898389652e-05 6.712860245445556e-05 -3.916661898389652e-05 -0.00029840793214453684 -3.186530433491419e-05 6.712860245445556e-05 -3.186530433491419e-05 -0.00029272273056323917" id=2308 pbc="T T T"
Si       0.09386549      -0.02612809       0.12239917       0.01558963      -0.00005292      -0.00334117
Si       3.95215120       3.62009679      -0.04424525      -0.01622076       0.00021813       0.00216210
Si       3.96276751       0.14502442       3.57562478      -0.01612071      -0.00334045       0.00380108
Si       0.10252868       3.57676822       3.57633243       0.01675185       0.00317523      -0.00262200
2
Lattice="6.797531953165233 0.0 0.0 3.7991450851962654 5.904827221618143 0.0 3.5377260422939103 1.9482603913360534 5.540316059712954" Properties=species:S:1:pos:R:3:dft_force:R:3 dft_energy=-8.439017714929015 volume=222.3786005957716 dft_virial="-0.0009815995068950254 0.013322550889040033 0.013129397956327664 0.013322550889040033 -0.0009669611574336994 0.007192061688415152 0.013129397956327664 0.007192061688415153 -0.0010334914218180966" id=315 pbc="T T T"
Si       0.00000000       0.00000000       0.00000000       0.00036537      -0.00398217       0.00189787
Si       3.41418499       1.97118031       1.39383272      -0.00036537       0.00398216      -0.00189788
4
Lattice="7.438473594286229 -0.17577416049583075 -0.023556267622955058 -0.02742236381502069 7.50945773575351 0.09095051526854622 0.16186959346535684 0.09259257388727853 7.279381236819929" Properties=species:S:1:pos:R:3:dft_force:R:3 dft_energy=-16.844795469889206 volume=406.54662729322706 dft_virial="4.864876489323786e-05 8.539578143200424e-06 1.5748270521270375e-05 8.539578143200422e-06 1.2504381239331582e-05 -1.1688043266240472e-06 1.5748270521270375e-05 -1.1688043266240475e-06 8.804193337377719e-05" id=2301 pbc="T T T"
Si       0.09386769      -0.02612652       0.12239480       0.00385069      -0.00537331      -0.00069135
Si       3.95215103       3.62009654      -0.04424586      -0.00249625       0.00596234      -0.00421559
Si       3.96277258       0.14502480       3.57562134      -0.00604281      -0.00488904       0.00334535
Si       0.10252702       3.57676610       3.57633577       0.00468838       0.00430001       0.00156161
2
Lattice="5.038577219623961 -0.07331432495703503 -0.09488449042300841 -2.5292581245441013 4.4557924480089 0.05894070900516774 -0.004693815131912965 -0.06517070140105025 8.845107997022145" Properties=species:S:1:pos:R:3:dft_force:R:3 dft_energy=-8.425340604361809 volume=196.9418250882894 dft_virial="1.1117700848150086e-05 -2.1806826311262582e-05 1.7121384715688394e-05 -2.180682631126259e-05 1.5218578355713765e-05 7.589109928589709e-06 1.7121384715688394e-05 7.589109928589709e-06 3.5004668708010934e-05" id=2367 pbc="T T T"
Si       0.09386665      -0.02612698       0.12239960      -0.00132072       0.00047082      -0.00452893
Si       0.28781149       2.88224634       4.35188933       0.00132072      -0.00047082       0.00452893
2
Lattice="6.998304015549973 0.0 0.0 4.067503202428246 6.168855976298607 0.0 3.4694937011120475 2.1952457060985173 5.721002223119047" Properties=species:S:1:pos:R:3:dft_force:R:3 dft_energy=-8.453646146538217 volume=246.98441653260144 dft_virial="-0.00048116773002141133 0.011799105692197904 0.010682184899186046 0.011799105692197897 -0.0003033269753321065 0.006759974502314572 0.010682184899186046 0.006759974502314576 -0.00041687199865636927" id=285 pbc="T T T"
Si       0.00000000       0.00000000       0.00000000       0.00550858      -0.01851465      -0.01305800
Si       3.47275824       2.00499511       1.41774444      -0.00550858       0.01851465       0.01305800
2
Lattice="6.959972810838065 0.0 0.0 3.2436582011363955 6.098894535712712 0.0 3.4834115340199165 2.007348347800852 5.482101156717733" Properties=species:S:1:pos:R:3:dft_force:R:3 dft_energy=-8.445775118234403 volume=232.70499818793706 dft_virial="-0.0006155687609036712 0.01016711458469417 0.012240164629993937 0.010167114584694171 -0.0004742409300803545 0.0069940805562899305 0.01224016462999394 0.006994080556289931 -0.0011575218232783265" id=280 pbc="T T T"
Si       0.00000000       0.00000000       0.00000000      -0.00489848      -0.01570747       0.02697759
Si       3.47275684       2.00499596       1.41774811       0.00489847       0.01570747      -0.02697759
2
Lattice="6.664963886070486 0.0 0.0 3.2104424850438487 5.86409984418021 0.0 2.694817483856835 2.1785424168829497 5.551233007534917" Properties=species:S:1:pos:R:3:dft_force:R:3 dft_energy=-8.430592446319174 volume=216.96446683940766 dft_virial="-0.0011961781917683315 0.011650233531633906 0.01025648549191047 0.011650233531633906 -0.0011357997540935492 0.008262102238965698 0.01025648549191047 0.008262102238965698 -0.0009940338721501354" id=303 pbc="T T T"
Si       0.00000000       0.00000000       0.00000000       0.02084761       0.00924029      -0.00300942
Si       3.43223390       1.98160068       1.40120339      -0.02084761      -0.00924029       0.00300942
2
Lattice="7.004568457653108 0.0 0.0 3.659001106067894 5.970344026358919 0.0 3.4595064985434005 2.06888727904929 5.651116371578137" Properties=species:S:1:pos:R:3:dft_force:R:3 dft_energy=-8.450873731202835 volume=236.32789778930658 dft_virial="-0.0005225869845445167 0.011585276647216586 0.0115138916634597 0.011585276647216586 -0.0007158951011705313 0.006971056230968048 0.011513891663459697 0.006971056230968043 -0.0006940694941849036" id=273 pbc="T T T"
Si       0.00000000       0.00000000       0.00000000      -0.00758308       0.00485899       0.00552950
Si       3.49552022       2.01814025       1.42704252       0.00758308      -0.00485899      -0.00552950
2
Lattice="7.104990393641846 0.0 0.0 3.8411725942079427 6.323291954107524 0.0 3.703305735059745 2.070846925040527 6.233667913194898" Properties=species:S:1:pos:R:3:dft_force:R:3 dft_energy=-8.458214778890817 volume=280.0595531906717 dft_virial="-0.00021762147904229954 0.009197389146249655 0.008923796767002376 0.009197389146249655 -3.567990698423841e-05 0.004918049282219165 0.008923796767002376 0.004918049282219167 0.00028436554012554316" id=239 pbc="T T T"
Si       0.00000000       0.00000000       0.00000000       0.01220283      -0.00039320      -0.01949151
Si       3.61064490       2.08460468       1.47403804      -0.01220283       0.00039320       0.01949151
2
Lattice="6.979283922105615 0.0 0.0 3.593253754739914 6.204227869899352 0.0 2.538676973083506 2.7223942571934985 5.526817746004753" Properties=species:S:1:pos:R:3:dft_force:R:3 dft_energy=-8.444637902447417 volume=239.31711005664542 dft_virial="-0.0004463305235607588 0.010563140063037236 0.008303902724969182 0.010563140063037237 -0.00023448010852265908 0.009002103519064854 0.008303902724969184 0.009002103519064854 -0.000700746177865362" id=270 pbc="T T T"
Si       0.00000000       0.00000000       0.00000000       0.01326808      -0.01202029       0.00268871
Si       3.49552560       2.01813982       1.42704093      -0.01326808       0.01202029      -0.00268871
2
Lattice="6.677505998359627 0.0 0.0 3.4299209463362597 5.816560004062999 0.0 3.030835355254917 1.9662959374694817 5.6388558284815655" Properties=species:S:1:pos:R:3:dft_force:R:3 dft_energy=-8.433648360110636 volume=219.0138049950203 dft_virial="-0.0012011906082121957 0.012495343872544194 0.011254218611263555 0.012495343872544194 -0.001301093689924073 0.007307389980286722 0.011254218611263555 0.0073073899802867225 -0.0008373945259794237" id=302 pbc="T T T"
Si       0.00000000       0.00000000       0.00000000       0.01343521       0.01976163      -0.00543015
Si       3.43223386       1.98160147       1.40120492      -0.01343521      -0.01976163       0.00543015
2
Lattice="7.186877895800255 0.0 0.0 4.102667226155282 6.289955295543001 0.0 3.7364874360820486 2.2161593051197506 6.215980076668401" Properties=species:S:1:pos:R:3:dft_force:R:3 dft_energy=-8.457395283774328 volume=280.9942538243384 dft_virial="-0.00011200452518497833 0.009845148776573139 0.008945185288441168 0.009845148776573137 -6.129622569541578e-05 0.005313929302723508 0.00894518528844117 0.00531392930272351 0.00028118030897913727" id=233 pbc="T T T"
Si       0.00000000       0.00000000       0.00000000       0.00642279      -0.00416030      -0.02385562
Si       3.61064211       2.08460572       1.47403887      -0.00642279       0.00416029       0.02385562
2
Lattice="6.9856825347635985 0.0 0.0 3.3099308963270215 5.947784475883137 0.0 3.6095299658513156 2.0765387801279 5.80970974686123" Properties=species:S:1:pos:R:3:dft_force:R:3 dft_energy=-8.452687506023942 volume=241.38957149223742 dft_virial="-0.0005087735362678359 0.010162466147104076 0.01142744351299875 0.010162466147104072 -0.0007595849832389216 0.006628195951786412 0.011427443512998747 0.006628195951786413 -0.0003489383522017371" id=266 pbc="T T T"
Si       0.00000000       0.00000000       0.00000000      -0.00071680       0.01662939      -0.00434889
Si       3.52022964       2.03240211       1.43712466       0.00071680      -0.01662939       0.00434889
4
Lattice="7.24105443516989 0.1041700187843208 0.16046444981086885 0.1042187170265524 7.2244952375713245 -0.23427620737568913 0.2182792410937233 -0.2712831865057667 7.415602503561541" Properties=species:S:1:pos:R:3:dft_force:R:3 dft_energy=-16.84399521107768 volume=387.12851823649 dft_virial="-6.872686119027876e-05 -1.1277035923339565e-05 3.053343810211175e-05 -1.127703592333957e-05 -4.527633628203991e-05 -1.7874566458198695e-05 3.0533438102111765e-05 -1.7874566458198692e-05 -0.0001877795608502673" id=2288 pbc="T T T"
Si       0.09386141      -0.02612556       0.12239282       0.01164285      -0.00430655      -0.00678797
Si       3.95215695       3.62009395      -0.04424531      -0.00760747       0.00077743      -0.00201710
Si       3.96277243       0.14502380       3.57562633      -0.01113388      -0.00052078       0.00558359
Si       0.10253104       3.57676684       3.57633502       0.00709851       0.00404989       0.00322148
2
Lattice="7.039611538908168 0.0 0.0 3.153040164282216 5.928739815999159 0.0 3.301873104131617 2.0165664318367766 5.718936752464831" Properties=species:S:1:pos:R:3:dft_force:R:3 dft_energy=-8.450866156178362 volume=238.6856885318392 dft_virial="-0.0005261474163532566 0.009668251660496558 0.010607640200335085 0.009668251660496558 -0.0007653344834543778 0.006591593734369284 0.010607640200335085 0.006591593734369285 -0.0004895858918339964" id=300 pbc="T T T"
Si       0.00000000       0.00000000       0.00000000      -0.00578570       0.00578389      -0.01137634
Si       3.43223639       1.98160177       1.40120240       0.00578570      -0.00578389       0.01137634
4
Lattice="7.413541946195249 -0.08671998539334651 0.0683951410874992 -0.28953701490385064 7.435276102094317 0.05098709741101407 0.004613180518175184 -0.08532576435585885 7.14657100132231" Properties=species:S:1:pos:R:3:dft_force:R:3 dft_energy=-16.845746755250026 volume=393.7835015189699 dft_virial="-4.905448651868715e-05 -1.6435308748856892e-05 1.82251399417556e-05 -1.6435308748856886e-05 -5.3434775914096656e-05 -3.9329873064943924e-05 1.8225139941755594e-05 -3.9329873064943924e-05 1.4057467260601132e-05" id=2321 pbc="T T T"
Si       0.09386640      -0.02612405       0.12239401       0.00334559      -0.00534487      -0.00027085
Si       3.95215610       3.62009197      -0.04424629      -0.00453684       0.00448137      -0.00147165
Si       3.96277173       0.14502197       3.57562733      -0.00643332      -0.00471099       0.00106076
Si       0.10252919       3.57676977       3.57633651       0.00762455       0.00557446       0.00068175
2
Lattice="6.965233808369023 0.0 0.0 3.4011819914329506 6.22481643602715 0.0 3.720984122955619 1.8227088773420417 5.6388199236851975" Properties=species:S:1:pos:R:3:dft_force:R:3 dft_energy=-8.453240148280186 volume=244.48401774081077 dft_virial="-0.0005091630821858436 0.009857042349853636 0.011981592146999289 0.009857042349853637 -0.00023772342087301725 0.005680942631833042 0.011981592146999292 0.005680942631833041 -0.0006905313771766932" id=257 pbc="T T T"
Si       0.00000000       0.00000000       0.00000000       0.00391214      -0.00800903       0.01766136
Si       3.54722672       2.04799398       1.44815046      -0.00391215       0.00800904      -0.01766136
4
Lattice="7.332061302071471 0.05197347775628499 -0.25786359878791676 0.06859320328262121 7.262364876677294 0.11603109267540816 0.012125163117003807 0.09022516279286985 7.397059206915686" Properties=species:S:1:pos:R:3:dft_force:R:3 dft_energy=-16.84470701541442 volume=393.79743597037503 dft_virial="-4.294556442792401e-05 1.488249791725447e-06 -1.0572664220270957e-06 1.4882497917254461e-06 1.092203435057921e-06 3.958122032374969e-06 -1.0572664220270957e-06 3.958122032374971e-06 -6.48661016648582e-05" id=2289 pbc="T T T"
Si       0.09386290      -0.02612601       0.12239357       0.00584068      -0.00220749      -0.00324307
Si       3.95215757       3.62009369      -0.04424767      -0.00725506       0.00300644      -0.00680366
Si       3.96277073       0.14502560       3.57562750      -0.00450491      -0.00189124       0.00514039
Si       0.10253172       3.57676841       3.57633311       0.00591930       0.00109230       0.00490636
4
Lattice="7.365076650503025 0.04019649667774348 0.2906895021754761 -0.18656464784553387 7.264081938525913 -0.19454673761238567 0.14199303834679555 0.19437949685035627 7.4235219300101" Properties=species:S:1:pos:R:3:dft_force:R:3 dft_energy=-16.844396880349596 volume=397.1849898249633 dft_virial="-4.4616767459137454e-05 -2.3832397865402277e-05 3.8990640207364204e-05 -2.3832397865402284e-05 3.130299771645272e-05 -2.67071497788541e-05 3.899064020736421e-05 -2.67071497788541e-05 -4.0836289739693304e-05" id=2304 pbc="T T T"
Si       0.09386117      -0.02612425       0.12239278       0.00839632      -0.00188411      -0.00522510
Si       3.95215239       3.62009730      -0.04424981      -0.00495250       0.00228567      -0.00464074
Si       3.96277110       0.14502223       3.57562346      -0.00978067      -0.00212134       0.00634017
Si       0.10252673       3.57677217       3.57633528       0.00633684       0.00171977       0.00352568
2
Lattice="6.748486001326696 0.0 0.0 2.885443606678459 6.119443417591893 0.0 3.535106881885179 2.718941727563807 5.580818559742059" Properties=species:S:1:pos:R:3:dft_force:R:3 dft_energy=-8.440208296171622 volume=230.4709426204312 dft_virial="-0.0009425213398733846 0.00916545893248461 0.012369218258592728 0.00916545893248461 -0.0004998015805476149 0.009485157168801732 0.01236921825859273 0.009485157168801734 -0.0007257410443287187" id=292 pbc="T T T"
Si       0.00000000       0.00000000       0.00000000       0.02694382      -0.01579739      -0.00028900
Si       3.45170253       1.99284153       1.40915110      -0.02694382       0.01579739       0.00028900
2
Lattice="4.889376576865231 0.04203306480648353 0.025719720576732875 -2.4309062701413233 4.451684674742755 0.021336066193654735 -0.2511740438957865 0.05004890508192112 8.764065221338708" Properties=species:S:1:pos:R:3:dft_force:R:3 dft_energy=-8.425056360427531 volume=191.67399880872597 dft_virial="-0.00017918388328232033 -1.785377634732929e-05 -3.635839739221761e-06 -1.785377634732928e-05 2.4543252744638378e-05 4.09805508795891e-05 -3.6358397392217603e-06 4.098055087958911e-05 -3.300321150324752e-05" id=2353 pbc="T T T"
Si       0.09386338      -0.02612868       0.12239329      -0.00134720       0.00090979      -0.00564458
Si       0.28780827       2.88224698       4.35189045       0.00134720      -0.00090979       0.00564458
2
Lattice="6.723762714438217 0.0 0.0 3.513832345174142 5.839709149089664 0.0 3.7007262588996306 2.2697405996573896 5.710895967804549" Properties=species:S:1:pos:R:3:dft_force:R:3 dft_energy=-8.438427562943389 volume=224.23729444668396 dft_virial="-0.0010859552884456573 0.012368887817230854 0.013297311113764667 0.012368887817230856 -0.0011699519368143724 0.008190058711770757 0.013297311113764667 0.008190058711770755 -0.0006309849662866502" id=305 pbc="T T T"
Si       0.00000000       0.00000000       0.00000000       0.01053091       0.01466556      -0.01488997
Si       3.43223698       1.98160247       1.40120259      -0.01053091      -0.01466556       0.01488998
4
Lattice="7.41808728554555 -0.1067180876962437 -0.279513869744313 0.059234391342195825 7.157940462962077 0.1781343717337046 0.005444074197911889 0.04957477279725252 7.24121867126738" Properties=species:S:1:pos:R:3:dft_force:R:3 dft_energy=-16.845592696111755 volume=384.4861072610435 dft_virial="-0.00016175143201542462 -4.313947184260157e-05 1.3115411498927697e-05 -4.313947184260157e-05 -2.1524767657018765e-05 4.9717390304190604e-05 1.3115411498927702e-05 4.971739030419063e-05 -8.254064357087932e-05" id=2302 pbc="T T T"
Si       0.09386273      -0.02612518       0.12239726       0.00531658      -0.00052815      -0.00228744
Si       3.95215300       3.62009650      -0.04424302      -0.00608439       0.00129390      -0.00408500
Si       3.96277158       0.14502301       3.57562153      -0.00410104      -0.00036365       0.00267764
Si       0.10252798       3.57677164       3.57633659       0.00486887      -0.00040209       0.00369482
2
Lattice="7.03735709564149 0.0 0.0 3.715832729539889 6.029532138308324 0.0 3.854028401033772 1.695755186563558 5.864878411343555" Properties=species:S:1:pos:R:3:dft_force:R:3 dft_energy=-8.454878649105197 volume=248.85834936033345 dft_virial="-0.00040969365015351716 0.010853046821395538 0.011613983806253801 0.010853046821395538 -0.0005258919754827257 0.005012962174036486 0.011613983806253798 0.005012962174036483 -0.0001982227871286695" id=263 pbc="T T T"
Si       0.00000000       0.00000000       0.00000000      -0.00367109       0.01041057      -0.01457969
Si       3.52022992       2.03240719       1.43712980       0.00367109      -0.01041057       0.01457969
2
Lattice="5.254675244338335 0.10091685526077755 -0.06874235936563794 -2.674383837476734 4.172357377658726 -0.020585485874214625 0.03794570058248547 -0.22046482274042048 8.374370756514521" Properties=species:S:1:pos:R:3:dft_force:R:3 dft_energy=-8.424739898810753 volume=185.80950033544744 dft_virial="-0.00013300140093276507 1.1030396414279702e-05 -1.1392981211732786e-05 1.1030396414279699e-05 -0.00012703808013491533 -4.123826631908307e-05 -1.1392981211732786e-05 -4.1238266319083086e-05 -0.0002108751354178628" id=2359 pbc="T T T"
Si       0.09386755      -0.02612887       0.12239983      -0.00052736       0.00083103       0.00498086
Si       0.28781009       2.88224430       4.35188794       0.00052736      -0.00083103      -0.00498086
4
Lattice="7.532265293885889 -0.060031761280481676 0.06321914343762672 -0.15285074325475162 7.372218095603337 -0.1980738925267384 0.07901676251070576 0.1796031802613312 7.273068285447175" Properties=species:S:1:pos:R:3:dft_force:R:3 dft_energy=-16.845618615593672 volume=404.03346175843603 dft_virial="7.65077103909166e-06 1.268871361301692e-05 2.310964934932186e-05 1.268871361301692e-05 4.876785180687015e-05 -1.2923663283547017e-05 2.3109649349321853e-05 -1.2923663283547013e-05 0.00010548113543104881" id=2282 pbc="T T T"
Si       0.09386285      -0.02612395       0.12239807       0.00197996      -0.00421794      -0.00183513
Si       3.95215128       3.62009813      -0.04424894      -0.00099092       0.00464065      -0.00297782
Si       3.96276948       0.14502083       3.57562792      -0.00368809      -0.00308889       0.00174098
Si       0.10252836       3.57676841       3.57633095       0.00269906       0.00266617       0.00307197
2
Lattice="4.976672456295057 -0.15624998260772846 -0.10842335765384475 -2.433950127599303 4.5156686470348015 0.19123208240074707 0.1922030614781023 0.050046410643436616 8.704750195382772" Properties=species:S:1:pos:R:3:dft_force:R:3 dft_energy=-8.424998357034568 volume=192.36536522387777 dft_virial="-0.00011360126273905931 2.638612302678935e-05 1.0830092513917432e-05 2.6386123026789353e-05 -8.00302072495077e-06 2.7671623312883123e-05 1.0830092513917433e-05 2.7671623312883123e-05 -2.8675365990340836e-05" id=2354 pbc="T T T"
Si       0.09386317      -0.02612609       0.12239932       0.00048084       0.00129809      -0.00664817
Si       0.28780981       2.88224593       4.35189487      -0.00048084      -0.00129809       0.00664818
2
Lattice="7.099393024860705 0.0 0.0 3.9717734564069542 6.2120418874246806 0.0 3.8713080567173503 2.0730408970712175 5.895182059478054" Properties=species:S:1:pos:R:3:dft_force:R:3 dft_energy=-8.459067296210607 volume=259.98770889292155 dft_virial="-0.00024317491001566674 0.010731696428205578 0.010947239919901777 0.010731696428205574 -0.00021251024048466165 0.005801173712855399 0.010947239919901776 0.005801173712855399 -0.00013462281233202138" id=232 pbc="T T T"
Si       0.00000000       0.00000000       0.00000000       0.00179196      -0.00083118      -0.00512213
Si       3.61064568       2.08460598       1.47403721      -0.00179196       0.00083118       0.00512213
4
Lattice="7.253490439337132 -0.12894884472360252 -0.1437572110677012 -0.009634995413539444 7.305474858607679 -0.10659381930628832 0.09442213113209623 -0.13786931579215972 7.17836825119119" Properties=species:S:1:pos:R:3:dft_force:R:3 dft_energy=-16.843337425492262 volume=380.3678665921157 dft_virial="-0.00011708379949350165 -3.221485075682667e-05 6.746261820283906e-06 -3.221485075682667e-05 -0.00019589975680138429 1.4796156653066695e-05 6.746261820283904e-06 1.4796156653066689e-05 -0.00012535681703396658" id=2322 pbc="T T T"
Si       0.09386525      -0.02612518       0.12239374       0.00759927      -0.00409513      -0.00200502
Si       3.95215356       3.62009790      -0.04424457      -0.00844716       0.00338265      -0.00112459
Si       3.96276748       0.14502592       3.57562269      -0.00917959      -0.00485363       0.00112871
Si       0.10252707       3.57677332       3.57633026       0.01002748       0.00556611       0.00200090
4
Lattice="7.079294048977275 -0.22458597526752686 0.22621588294727782 0.04413903229155022 7.581021059380728 0.03364608232016943 -0.029587706494923132 -0.01596797788321405 7.543321911365723" Properties=species:S:1:pos:R:3:dft_force:R:3 dft_energy=-16.838295178634905 volume=404.96647780849344 dft_virial="-7.538351917431756e-05 -7.85244126024135e-05 7.793742744700746e-05 -7.85244126024135e-05 -3.512395469594917e-05 -5.653896976662611e-05 7.793742744700746e-05 -5.653896976662611e-05 -9.532645873777678e-06" id=2317 pbc="T T T"
Si       0.09386425      -0.02612932       0.12239577       0.01395709      -0.00698443      -0.01043211
Si       3.95215619       3.62009474      -0.04424546      -0.00944092       0.00483832      -0.00587001
Si       3.96276874       0.14502166       3.57562565      -0.01982219      -0.01063559       0.01142568
Si       0.10253206       3.57676845       3.57633130       0.01530607       0.01278166       0.00487646
2
Lattice="6.8973888610427085 0.0 0.0 2.6354385095688437 5.869519578705636 0.0 3.2443158258277656 1.8800393885109385 5.45693945336834" Properties=species:S:1:pos:R:3:dft_force:R:3 dft_energy=-8.434189120591547 volume=220.920695663171 dft_virial="-0.0007831088048441298 0.00901341223408522 0.012178040988405107 0.00901341223408522 -0.0009584245717684306 0.007043827300006858 0.012178040988405104 0.007043827300006856 -0.0012304366657367443" id=313 pbc="T T T"
Si       0.00000000       0.00000000       0.00000000      -0.00728668      -0.00729214       0.01738843
Si       3.41418081       1.97117667       1.39383330       0.00728668       0.00729214      -0.01738843
2
Lattice="4.937572492098388 0.14207374854957833 -0.17635793469025013 -2.61273473519523 4.342918690845255 0.09209381847120605 0.11784545652218385 -0.3659718635077414 8.760827062240592" Properties=species:S:1:pos:R:3:dft_force:R:3 dft_energy=-8.425512126226822 volume=191.20419573159757 dft_virial="-0.0001537719350613356 -1.2492844950780704e-05 2.6290053372012563e-05 -1.249284495078069e-05 3.657801163316586e-06 -3.8965800282376396e-05 2.6290053372012563e-05 -3.896580028237641e-05 -3.760375637413772e-05" id=2350 pbc="T T T"
Si       0.09386655      -0.02612875       0.12239705      -0.00217944      -0.00007777      -0.00390179
Si       0.28781264       2.88224434       4.35189572       0.00217944       0.00007777       0.00390179
2
Lattice="7.060564822178018 0.0 0.0 3.6070827705199253 6.237944363414926 0.0 3.8388614591575254 2.092951051520275 5.911972276095354" Properties=species:S:1:pos:R:3:dft_force:R:3 dft_energy=-8.459970207303073 volume=260.3834220277899 dft_virial="-0.0003028216412811588 0.00962231649688774 0.010833985039507851 0.009622316496887742 -0.00018337151011907734 0.00581542599708344 0.010833985039507856 0.005815425997083442 -0.0001179362054483977" id=231 pbc="T T T"
Si       0.00000000       0.00000000       0.00000000       0.00745979       0.00096771      -0.00209289
Si       3.61064203       2.08460483       1.47403797      -0.00745978      -0.00096771       0.00209289
2
Lattice="5.180695641299125 -0.15231219020649453 0.03786546281123385 -2.665659198726472 4.379135235331924 -0.07724920718003704 0.010911278643589196 -0.044776720372305186 8.560993418952082" Properties=species:S:1:pos:R:3:dft_force:R:3 dft_energy=-8.425456481272683 volume=190.7320231366048 dft_virial="-4.6445108311140005e-05 -4.0536682249534095e-05 -2.8814551999765765e-06 -4.0536682249534095e-05 -6.713358038018794e-05 -3.16183862743764e-05 -2.8814551999765757e-06 -3.16183862743764e-05 -6.195185184598285e-05" id=2365 pbc="T T T"
Si       0.09386500      -0.02612820       0.12239378      -0.00111019       0.00015577      -0.00030841
Si       0.28781047       2.88224451       4.35189436       0.00111019      -0.00015577       0.00030841
2
Lattice="7.207738582489998 0.0 0.0 3.2345629492985717 6.378218733645896 0.0 3.509465188100132 2.0583407175477535 5.75472249608687" Properties=species:S:1:pos:R:3:dft_force:R:3 dft_energy=-8.459169019701577 volume=264.559171319241 dft_virial="-0.00016193927475281978 0.008024167581897664 0.009795059022919904 0.008024167581897664 3.7629663588063556e-05 0.005685664230925453 0.009795059022919906 0.005685664230925454 -0.0003294224733923926" id=252 pbc="T T T"
Si       0.00000000       0.00000000       0.00000000       0.00318946      -0.01481772       0.00444668
Si       3.54723153       2.04799307       1.44815290      -0.00318946       0.01481772      -0.00444669
2
Lattice="7.694811711660042 0.0 0.0 3.574889396260801 6.289524437986586 0.0 3.5061600571081617 2.2459470580222263 5.806032339822709" Properties=species:S:1:pos:R:3:dft_force:R:3 dft_energy=-8.457240576101317 volume=280.99284195464793 dft_virial="0.0002842328643874324 0.008325820125839215 0.008881493084585051 0.008325820125839212 -8.11607281983082e-06 0.005830040858217586 0.00888149308458505 0.005830040858217586 -0.00023643028912899943" id=228 pbc="T T T"
Si       0.00000000       0.00000000       0.00000000      -0.01275125      -0.00548987       0.00984296
Si       3.64867708       2.10656345       1.48956662       0.01275122       0.00548987      -0.00984296
2
Lattice="6.922106478752814 0.0 0.0 3.4920551413139544 5.963626049985875 0.0 3.436967735054989 2.5834786000461336 5.7491043403183575" Properties=species:S:1:pos:R:3:dft_force:R:3 dft_energy=-8.448687045973521 volume=237.3279398784161 dft_virial="-0.0006662065001582648 0.010948418835684787 0.011169857803715856 0.010948418835684783 -0.0007078210871620695 0.00861061786627634 0.011169857803715853 0.008610617866276338 -0.0004318163800831363" id=294 pbc="T T T"
Si       0.00000000       0.00000000       0.00000000       0.00548885       0.00245501      -0.01730573
Si       3.45170295       1.99284260       1.40915146      -0.00548885      -0.00245501       0.01730573
4
Lattice="7.4184675362363475 0.1532449590216098 -0.20526250519112108 0.03165689990960461 7.187355240619334 -0.01781497730016203 -0.1580191820001256 -0.012176998304602291 7.509809338196258" Properties=species:S:1:pos:R:3:dft_force:R:3 dft_energy=-16.845270580703747 volume=400.14608145722553 dft_virial="2.729072538468114e-05 2.8742414278179768e-05 4.085795350884072e-06 2.8742414278179768e-05 6.405213841679147e-05 -1.8610017682574466e-05 4.085795350884071e-06 -1.8610017682574466e-05 -2.03374938378169e-05" id=2295 pbc="T T T"
Si       0.09386491      -0.02612970       0.12239665       0.00382652      -0.00244158      -0.00472761
Si       3.95215640       3.62009824      -0.04424486      -0.00611397       0.00175841      -0.00608258
Si       3.96277231       0.14502403       3.57562665      -0.00253348      -0.00034050       0.00530813
Si       0.10252533       3.57677015       3.57633415       0.00482095       0.00102368       0.00550205
2
Lattice="5.10305236953032 -0.02540872834840321 0.06819254354967806 -2.55422129326684 4.501214150804801 0.012288170892514026 0.1252966655288445 -0.2916212127439616 8.812456099616142" Properties=species:S:1:pos:R:3:dft_force:R:3 dft_energy=-8.424822822608876 volume=201.88017131619543 dft_virial="7.404226648757954e-05 1.142347197822682e-05 1.1600775659399561e-05 1.1423471978226813e-05 0.00012915076075978882 2.554650724548707e-06 1.1600775659399558e-05 2.5546507245487057e-06 5.6429195408436656e-05" id=2339 pbc="T T T"
Si       0.09386436      -0.02612835       0.12239890      -0.00054250      -0.00082101      -0.00525102
Si       0.28780975       2.88224800       4.35188941       0.00054250       0.00082101       0.00525102
2
Lattice="5.076803714611304 0.2577896538046601 -0.05912501399410249 -2.400263283886625 4.202716678227596 0.02852411194020001 -0.048510176687683336 -0.10284758844230768 8.827176291339265" Properties=species:S:1:pos:R:3:dft_force:R:3 dft_energy=-8.424602098681532 volume=193.7896960784047 dft_virial="-1.779790478494304e-05 6.333978992452637e-05 -7.643351048297505e-06 6.333978992452638e-05 -0.00010269775858935296 -1.0498653195318138e-05 -7.643351048297503e-06 -1.0498653195318137e-05 2.1732867369772917e-05" id=2337 pbc="T T T"
Si       0.09386638      -0.02612756       0.12239605      -0.00102680      -0.00061781      -0.00560641
Si       0.28780659       2.88224812       4.35188877       0.00102680       0.00061781       0.00560641
2
Lattice="6.7867926395989855 0.0 0.0 3.683027084016386 5.9083685683756935 0.0 3.4899405377804986 1.8887000033400985 5.463207674923725" Properties=species:S:1:pos:R:3:dft_force:R:3 dft_energy=-8.435392875275497 volume=219.06846697010468 dft_virial="-0.0010284092361295008 0.013163680530586638 0.013414145881029077 0.013163680530586645 -0.000987793143983052 0.007210650008728904 0.01341414588102908 0.007210650008728901 -0.0013131566465485922" id=314 pbc="T T T"
Si       0.00000000       0.00000000       0.00000000      -0.00267149      -0.00596814       0.01518264
Si       3.41417735       1.97117657       1.39383364       0.00267149       0.00596814      -0.01518264
4
Lattice="7.387084854484687 0.08780495275053914 0.06452872364199237 -0.26822385219082634 7.323522215529387 0.016084214937139782 -0.12751805748560335 0.1269128537969307 7.619215145565033" Properties=species:S:1:pos:R:3:dft_force:R:3 dft_energy=-16.84349748745926 volume=412.41782698278666 dft_virial="8.360871186540853e-05 -1.818152014740804e-05 8.154725870170657e-08 -1.8181520147408043e-05 8.289808254374268e-05 1.229218376075324e-05 8.15472587017068e-08 1.2292183760753237e-05 4.0696699722826547e-05" id=2285 pbc="T T T"
Si       0.09386466      -0.02612626       0.12239720       0.00291705      -0.00236554      -0.00479851
Si       3.95215502       3.62009673      -0.04424951      -0.00335173       0.00270285      -0.00621134
Si       3.96277392       0.14502457       3.57562783      -0.00510044      -0.00247348       0.00582668
Si       0.10253059       3.57677160       3.57633320       0.00553513       0.00213616       0.00518317
2
Lattice="7.072899064593451 0.0 0.0 2.932008348115363 5.769715583159651 0.0 2.6115202460094555 1.7045556411259402 5.662069224196468" Properties=species:S:1:pos:R:3:dft_force:R:3 dft_energy=-8.437335197970842 volume=231.06120845877723 dft_virial="-0.0004319221691368263 0.009573225284385012 0.008604193184155189 0.009573225284385012 -0.0011038981534409228 0.005855059882222159 0.008604193184155189 0.005855059882222159 -0.0005608526132190745" id=289 pbc="T T T"
Si       0.00000000       0.00000000       0.00000000      -0.01361357       0.02783998      -0.00974013
Si       3.45169949       1.99283964       1.40914747       0.01361357      -0.02783998       0.00974013
2
Lattice="5.314995906948749 0.16780554447624757 -0.043693850611110883 -2.720740047635785 4.122482384072055 -0.04379272108195131 -0.22809517778369567 -0.30699874569953634 8.711146540369405" Properties=species:S:1:pos:R:3:dft_force:R:3 dft_energy=-8.425755233225027 volume=194.69948900714536 dft_virial="-4.739572221082176e-07 2.0648570534743377e-05 -4.1780797638039056e-08 2.064857053474339e-05 -7.115378929240361e-05 -1.5825706532165782e-05 -4.178079763803974e-08 -1.5825706532165776e-05 2.1612134239636723e-05" id=2343 pbc="T T T"
Si       0.09386453      -0.02612586       0.12239382      -0.00238893       0.00102750      -0.00166052
Si       0.28781162       2.88224632       4.35188833       0.00238893      -0.00102750       0.00166052
2
Lattice="5.0736664290937235 -0.01890338395890149 -0.015789738915139347 -2.5719567886862005 4.272251399757289 0.14538322591163544 -0.10713666203284831 0.4337353825353457 8.593063224019916" Properties=species:S:1:pos:R:3:dft_force:R:3 dft_energy=-8.424583747340689 volume=185.5360172454748 dft_virial="-0.0001898569758277677 -3.286483461104293e-05 -3.423324436920811e-05 -3.286483461104293e-05 -0.00016294270171547868 4.4627159439615405e-05 -3.423324436920812e-05 4.462715943961542e-05 -0.0001639306724386862" id=2329 pbc="T T T"
Si       0.09386519      -0.02612745       0.12239416       0.00079867       0.00262897      -0.00599543
Si       0.28781083       2.88224551       4.35189156      -0.00079867      -0.00262897       0.00599543
2
Lattice="6.916253996944848 0.0 0.0 3.207560652703794 5.767674678945054 0.0 2.656777296968118 1.8041479873459674 5.5099160355461" Properties=species:S:1:pos:R:3:dft_force:R:3 dft_energy=-8.431936002809124 volume=219.79442441173836 dft_virial="-0.0007243136658638292 0.01143758772079595 0.009814880612831534 0.011437587720795955 -0.001271916770686632 0.00686208769702857 0.009814880612831539 0.0068620876970285705 -0.0010544964926846648" id=288 pbc="T T T"
Si       0.00000000       0.00000000       0.00000000      -0.01263952       0.02488627       0.00563898
Si       3.45169772       1.99284022       1.40915001       0.01263952      -0.02488627      -0.00563898
4
Lattice="7.263043401739602 -0.1845944760797828 0.16953609896939612 -0.1053549715507674 7.441140829327571 -0.03886321930777501 -0.040861831451701726 0.03776330421693659 7.02507506635888" Properties=species:S:1:pos:R:3:dft_force:R:3 dft_energy=-16.84304582611248 volume=379.59710907640357 dft_virial="-0.00017951139014722956 -1.9609763688841564e-05 5.112115423260909e-05 -1.960976368884157e-05 -0.00018989608763382603 -4.388891528465391e-05 5.112115423260909e-05 -4.38889152846539e-05 -0.00012619167014859943" id=2306 pbc="T T T"
Si       0.09386292      -0.02612630       0.12239913       0.00964649      -0.00531681      -0.00027324
Si       3.95215710       3.62009348      -0.04424924      -0.01017392       0.00515955       0.00206624
Si       3.96276986       0.14502357       3.57562244      -0.01288299      -0.00763198       0.00060237
Si       0.10253081       3.57677243       3.57633634       0.01341041       0.00778924      -0.00239537
2
Lattice="7.0524900224474925 0.0 0.0 4.43731882556526 6.019478795325314 0.0 3.5568746371147433 2.3700699390660205 5.524960145224246" Properties=species:S:1:pos:R:3:dft_force:R:3 dft_energy=-8.442635947869665 volume=234.54734372016188 dft_virial="-0.0003874716684221225 0.014120812008496218 0.012180560502870632 0.014120812008496214 -0.0005388058238291096 0.00819348085490922 0.01218056050287063 0.008193480854909221 -0.0008815848262554756" id=286 pbc="T T T"
Si       0.00000000       0.00000000       0.00000000      -0.00623918      -0.02160816       0.00746260
Si       3.47275739       2.00499896       1.41774898       0.00623918       0.02160816      -0.00746260
4
Lattice="7.210215087473582 -0.24236877053178651 0.09101614545685446 0.090360845128618 7.40026718708759 0.05829618011584163 -0.21274098294576008 -0.07309451201421856 7.275156697376544" Properties=species:S:1:pos:R:3:dft_force:R:3 dft_energy=-16.84302774962331 volume=388.52005471326146 dft_virial="-0.00011693722608350777 -6.188566916918615e-05 1.119821966022086e-05 -6.188566916918615e-05 -0.00013302068581781546 -1.4337488951457995e-05 1.1198219660220857e-05 -1.4337488951457988e-05 -6.689876398946968e-05" id=2314 pbc="T T T"
Si       0.09386466      -0.02612601       0.12239771       0.00903757      -0.00533101      -0.00308372
Si       3.95215506       3.62009461      -0.04424522      -0.00934301       0.00322753      -0.00379697
Si       3.96277273       0.14502257       3.57562331      -0.01160767      -0.00649998       0.00414390
Si       0.10253165       3.57677060       3.57633303       0.01191310       0.00860344       0.00273679
2
Lattice="4.992602488477688 0.03817934632053419 -0.10984656709008415 -2.4458673830480757 4.4708064732471415 0.05100041998019269 0.068331740776018 -0.12499349676667079 8.717359128387681" Properties=species:S:1:pos:R:3:dft_force:R:3 dft_energy=-8.425535548836535 volume=195.42579674417314 dft_virial="-3.8703836520073194e-05 -2.9977249754077013e-05 1.649717832956459e-05 -2.9977249754077006e-05 3.2530515401733995e-05 1.3435588226411396e-05 1.6497178329564594e-05 1.3435588226411398e-05 3.847527370341961e-05" id=2342 pbc="T T T"
Si       0.09386583      -0.02612514       0.12239480      -0.00058370       0.00015096      -0.00316617
Si       0.28780773       2.88224500       4.35189141       0.00058370      -0.00015095       0.00316616
2
Lattice="7.223818262084439 0.0 0.0 3.5552324651124434 6.068653248540326 0.0 4.28245199019993 2.1320721617522773 5.72790728237843" Properties=species:S:1:pos:R:3:dft_force:R:3 dft_energy=-8.454115533792063 volume=251.10485764429475 dft_virial="-0.0001130134846118289 0.010122227416627019 0.013093983612043407 0.01012222741662702 -0.0004295437038388628 0.006512193043789419 0.01309398361204341 0.0065121930437894195 -0.0004166467828737324" id=243 pbc="T T T"
Si       0.00000000       0.00000000       0.00000000      -0.01256120       0.00472290      -0.00096314
Si       3.57710444       2.06524445       1.46034715       0.01256120      -0.00472290       0.00096314
4
Lattice="7.373688472603647 0.06179791821381817 -0.04628835009391584 0.22600300529933876 7.512090804546519 0.01886587289532767 0.07144882512132696 -0.0268562774571278 7.449743486256488" Properties=species:S:1:pos:R:3:dft_force:R:3 dft_energy=-16.843546206870467 volume=412.57972829929946 dft_virial="6.511532715525336e-05 3.196253071693886e-06 1.127312865806871e-05 3.196253071693885e-06 5.273383429045367e-05 -2.6061853313741908e-06 1.1273128658068706e-05 -2.6061853313741908e-06 9.830994060762729e-05" id=2296 pbc="T T T"
Si       0.09386753      -0.02612520       0.12239410       0.00571797      -0.00581269      -0.00241912
Si       3.95215320       3.62009225      -0.04424454      -0.00449510       0.00454031      -0.00453495
Si       3.96277384       0.14502667       3.57562526      -0.00350555      -0.00294320       0.00371023
Si       0.10253059       3.57676873       3.57633625       0.00228268       0.00421557       0.00324385
4
Lattice="7.307942462981216 -0.11266898644078022 -0.07791665844725486 0.14750930008266816 7.302671468799059 0.0016851632716350304 0.017769264825207333 0.034174714306272246 7.539381832395878" Properties=species:S:1:pos:R:3:dft_force:R:3 dft_energy=-16.844091598455734 volume=402.4925780804741 dft_virial="-2.650815163706977e-06 -2.163177744513306e-05 -3.281517596819707e-06 -2.163177744513307e-05 1.1904767753503391e-05 -2.678909978373068e-06 -3.281517596819707e-06 -2.678909978373067e-06 1.3259679631254426e-05" id=2287 pbc="T T T"
Si       0.09386351      -0.02612917       0.12239567       0.00610224      -0.00390235      -0.00416164
Si       3.95215084       3.62009372      -0.04424297      -0.00608016       0.00334158      -0.00583544
Si       3.96277263       0.14501972       3.57562170      -0.00626839      -0.00319627       0.00503654
Si       0.10252787       3.57677315       3.57633317       0.00624632       0.00375703       0.00496059
4
Lattice="7.150246613121014 -0.23217874365818325 0.1228956173094175 0.15258962089885084 7.278121866638694 -0.1887501728004473 -0.1194494938512887 0.13659890961035753 7.386378739420959" Properties=species:S:1:pos:R:3:dft_force:R:3 dft_energy=-16.84177124613366 volume=384.940063469338 dft_virial="-0.00013174480316160004 -8.35464832490813e-05 4.7615246883951146e-05 -8.354648324908132e-05 -0.0001535090588299843 4.7806317885671836e-06 4.7615246883951146e-05 4.780631788567183e-06 -0.000130664254471629" id=2311 pbc="T T T"
Si       0.09386455      -0.02612601       0.12239754       0.01143207      -0.00256610      -0.00688387
Si       3.95215636       3.62009456      -0.04424939      -0.01030293       0.00201633      -0.00392194
Si       3.96277320       0.14502620       3.57562100      -0.01387593      -0.00717315       0.00609917
Si       0.10252815       3.57677064       3.57633664       0.01274678       0.00772291       0.00470665
2
Lattice="7.547159850638532 0.0 0.0 3.5897898867534748 6.26821777593143 0.0 3.657298462829606 2.2534700577243614 5.96756234950347" Properties=species:S:1:pos:R:3:dft_force:R:3 dft_energy=-8.460671428651663 volume=282.3089134345898 dft_virial="0.00019185154701510036 0.00836185762515426 0.009001833081924404 0.00836185762515426 -4.469823887259651e-05 0.005656746514298776 0.0090018330819244 0.005656746514298774 1.3792145933521033e-05" id=229 pbc="T T T"
Si       0.00000000       0.00000000       0.00000000      -0.00798355       0.00023585      -0.00348544
Si       3.64867748       2.10656383       1.48956324       0.00798357      -0.00023586       0.00348544
4
Lattice="7.1313111038179935 0.010417531001746975 0.05476685201644556 0.14352639991883942 7.421129687914414 -0.12170263320694126 -0.05959018897694038 0.06191396629513144 7.446356926965807" Properties=species:S:1:pos:R:3:dft_force:R:3 dft_energy=-16.842300343178934 volume=394.1463477038933 dft_virial="-6.472052784450227e-05 -5.292955346092177e-06 2.362421046240045e-05 -5.2929553460921745e-06 -6.100136922397998e-05 1.2514822892559905e-05 2.362421046240044e-05 1.2514822892559905e-05 -5.931181422696291e-05" id=2310 pbc="T T T"
Si       0.09386236      -0.02612544       0.12239885       0.01122428      -0.00632347      -0.00709601
Si       3.95215341       3.62009845      -0.04424387      -0.01003861       0.00570597      -0.00553263
Si       3.96277260       0.14502418       3.57562492      -0.01102743      -0.00522550       0.00695748
Si       0.10252730       3.57676903       3.57633222       0.00984177       0.00584296       0.00567120
2
Lattice="6.981132074255499 0.0 0.0 3.3506715018478284 5.911040641115914 0.0 3.503440741214825 2.1200894083960256 5.874485778961152" Properties=species:S:1:pos:R:3:dft_force:R:3 dft_energy=-8.45198603482203 volume=242.4150933254257 dft_virial="-0.0005350820811948927 0.010282279251991168 0.010864865818993348 0.010282279251991168 -0.0008330517926884308 0.006690281577007849 0.010864865818993345 0.006690281577007846 -0.00022854087330863055" id=278 pbc="T T T"
Si       0.00000000       0.00000000       0.00000000      -0.00057240       0.01966328      -0.01344480
Si       3.49552109       2.01814080       1.42704184       0.00057240      -0.01966328       0.01344480
2
Lattice="7.180265744090189 0.0 0.0 3.337020120323532 6.0573432376844405 0.0 3.0265154413340225 2.173768968692145 5.903366463323809" Properties=species:S:1:pos:R:3:dft_force:R:3 dft_energy=-8.456401239478671 volume=256.75709019772285 dft_virial="-0.00015962080993387636 0.009132117464389067 0.008441757813588703 0.009132117464389064 -0.00043554177830560536 0.006249537455167693 0.0084417578135887 0.006249537455167692 -0.000124592291853144" id=247 pbc="T T T"
Si       0.00000000       0.00000000       0.00000000       0.00224708       0.01545381      -0.00258603
Si       3.57710274       2.06524058       1.46034528      -0.00224708      -0.01545381       0.00258603
2
Lattice="7.659076990643369 0.0 0.0 3.6579598669732247 6.104850952457533 0.0 3.509682506604464 1.8198591703461062 5.730089916052373" Properties=species:S:1:pos:R:3:dft_force:R:3 dft_energy=-8.454051135996684 volume=267.9248136850327 dft_virial="0.0002486179077112325 0.009415577629167497 0.009614480061897092 0.009415577629167499 -0.00028393636207818117 0.005110193234033371 0.009614480061897093 0.00511019323403337 -0.00041345029883015235" id=226 pbc="T T T"
Si       0.00000000       0.00000000       0.00000000      -0.02588811       0.01309888       0.01898574
Si       3.64867487       2.10656256       1.48956553       0.02588811      -0.01309888      -0.01898574
2
Lattice="5.048475964112715 0.02254634129017131 -0.025171076390970274 -2.5006736736487416 4.4557061631140495 -0.025979973658616335 0.09099945917517402 0.12551128172481826 8.47836503076925" Properties=species:S:1:pos:R:3:dft_force:R:3 dft_energy=-8.425578020535161 volume=191.22933212996566 dft_virial="-3.743203218896701e-05 1.533161699378469e-05 7.23227904211991e-06 1.533161699378469e-05 2.4485702374600118e-05 1.4344121098922584e-08 7.23227904211991e-06 1.4344121098922928e-08 -0.00011025278596061312" id=2345 pbc="T T T"
Si       0.09386657      -0.02612724       0.12239673       0.00009702       0.00103240       0.00076773
Si       0.28781221       2.88224496       4.35189521      -0.00009702      -0.00103240      -0.00076773
2
Lattice="4.84102201912391 -0.16786236854081504 0.020762534314830813 -2.459016210806789 4.446646494819152 -0.10142974582826222 -0.059168402105923903 -0.12385089276267708 8.740961316355465" Properties=species:S:1:pos:R:3:dft_force:R:3 dft_energy=-8.424344748362682 volume=184.50257762435263 dft_virial="-0.0002501140473915614 2.2323893254427565e-06 2.0446152834628752e-05 2.232389325442756e-06 -0.00020710536437270718 -3.191602930958544e-05 2.044615283462874e-05 -3.191602930958543e-05 -0.0001131322293388447" id=2347 pbc="T T T"
Si       0.09386285      -0.02612766       0.12239805      -0.00202943       0.00001848      -0.00335732
Si       0.28780899       2.88224625       4.35189198       0.00202943      -0.00001848       0.00335732
2
Lattice="5.084856328957128 0.08285919933169107 0.022618528828132013 -2.514543318540433 4.179916697896977 0.21856869044423224 0.157899656822743 -0.12406830575331526 8.385535995451997" Properties=species:S:1:pos:R:3:dft_force:R:3 dft_energy=-8.423302069312744 volume=180.10852335592412 dft_virial="-0.00024261986552519073 6.885383048659002e-05 3.530561503195612e-05 6.885383048659002e-05 -0.00026382676140413185 7.88117589233725e-05 3.530561503195611e-05 7.88117589233725e-05 -0.0003152388641029807" id=2336 pbc="T T T"
Si       0.09386610      -0.02612783       0.12239633      -0.00002558       0.00000501      -0.00729666
Si       0.28780950       2.88224511       4.35188829       0.00002558      -0.00000501       0.00729666
4
Lattice="7.280273489906931 -0.08648528140866799 -0.12971945613996363 0.04078835889997627 7.2871704611385 -0.06793083537867864 0.1592654185847938 0.304366073749014 7.209722341386585" Properties=species:S:1:pos:R:3:dft_force:R:3 dft_energy=-16.844044870388267 volume=382.820307361164 dft_virial="-7.901617505267517e-05 -2.326720718386093e-05 -2.0416641367322354e-08 -2.326720718386093e-05 -0.00015271451952371542 -7.495309471562749e-06 -2.041664136732266e-08 -7.495309471562749e-06 -0.00013270373638965872" id=2324 pbc="T T T"
Si       0.09386598      -0.02612439       0.12239577       0.00721775      -0.00282330      -0.00164601
Si       3.95215515       3.62009229      -0.04424665      -0.00665146       0.00403296      -0.00349649
Si       3.96276948       0.14502654       3.57562465      -0.00808675      -0.00444951       0.00242747
Si       0.10253165       3.57676760       3.57633377       0.00752046       0.00323986       0.00271504
2
Lattice="7.014755971190965 0.0 0.0 3.1818471493260114 6.000222486115377 0.0 3.8395927831677557 2.144461206225324 5.718075037352002" Properties=species:S:1:pos:R:3:dft_force:R:3 dft_energy=-8.451544630379162 volume=240.6743301904482 dft_virial="-0.00040925870616527563 0.00972856307347069 0.012466392639524903 0.00972856307347069 -0.0006485144372018523 0.006958705766352136 0.012466392639524903 0.006958705766352137 -0.0005516039277316314" id=244 pbc="T T T"
Si       0.00000000       0.00000000       0.00000000      -0.00237226       0.01168695       0.01273476
Si       3.57710576       2.06524251       1.46035062       0.00237226      -0.01168695      -0.01273476
2
Lattice="6.873143674863759 0.0 0.0 3.3094811415093606 6.0845250582610575 0.0 3.482942881941009 2.201351411207183 5.61499614643204" Properties=species:S:1:pos:R:3:dft_force:R:3 dft_energy=-8.449368556716356 volume=234.81809961320965 dft_virial="-0.0007406110480140372 0.010343972391172919 0.011832251458233583 0.01034397239117292 -0.0005254292219611398 0.007437420881934843 0.011832251458233587 0.007437420881934843 -0.0007676042881903329" id=279 pbc="T T T"
Si       0.00000000       0.00000000       0.00000000       0.00925649      -0.00949450       0.00653818
Si       3.47275522       2.00499541       1.41774722      -0.00925649       0.00949450      -0.00653818
2
Lattice="6.705404025137478 0.0 0.0 3.306274276275871 5.85912041584182 0.0 4.242119565522041 2.0690327879608867 5.517520293471594" Properties=species:S:1:pos:R:3:dft_force:R:3 dft_energy=-8.430416422747511 volume=216.77106616441938 dft_virial="-0.0011495746809325046 0.01204808002249749 0.01650880988161105 0.01204808002249749 -0.0011342481217671157 0.007882603437023381 0.01650880988161105 0.007882603437023385 -0.0010228668890441195" id=324 pbc="T T T"
Si       0.00000000       0.00000000       0.00000000       0.00934326       0.00239328      -0.00683959
Si       3.39732848       1.96144847       1.38695563      -0.00934325      -0.00239328       0.00683959
2
Lattice="7.078332027201751 0.0 0.0 3.6056730348309545 5.925950580239211 0.0 3.3779572573613 1.6350212786442104 5.469428653325992" Properties=species:S:1:pos:R:3:dft_force:R:3 dft_energy=-8.442257221901125 volume=229.4198108174823 dft_virial="-0.0005552892080621498 0.011822124301981544 0.011961401096443943 0.011822124301981547 -0.0007601652183162438 0.005856480542027059 0.011961401096443943 0.005856480542027058 -0.0011510713931085048" id=310 pbc="T T T"
Si       0.00000000       0.00000000       0.00000000      -0.02144249      -0.00532668       0.01118075
Si       3.41417856       1.97117767       1.39383466       0.02144249       0.00532668      -0.01118075
2
Lattice="6.898033257651205 0.0 0.0 2.934665303046587 6.070397465753356 0.0 3.6356988932251335 2.356000928068182 5.793486448081318" Properties=species:S:1:pos:R:3:dft_force:R:3 dft_energy=-8.451049893548118 volume=242.59531372056395 dft_virial="-0.0005961287362016662 0.008714965357757662 0.011472597327355739 0.008714965357757662 -0.000510051499410227 0.007403518194618321 0.011472597327355739 0.007403518194618321 -0.0003276722585823109" id=264 pbc="T T T"
Si       0.00000000       0.00000000       0.00000000       0.01811523      -0.00081052      -0.00338353
Si       3.52022642       2.03240521       1.43712646      -0.01811523       0.00081052       0.00338353
2
Lattice="6.7309209969983 0.0 0.0 3.4668896585123137 6.0170145924588025 0.0 3.285982397149639 1.8521659281727083 5.67104920274069" Properties=species:S:1:pos:R:3:dft_force:R:3 dft_energy=-8.444804904232363 volume=229.67777546739086 dft_virial="-0.0010566105697433965 0.011406944180093529 0.01138079176470241 0.011406944180093529 -0.0007241559873319903 0.006265570147158355 0.01138079176470241 0.006265570147158352 -0.0006684471107153496" id=307 pbc="T T T"
Si       0.00000000       0.00000000       0.00000000       0.01858342      -0.00274375      -0.00657320
Si       3.43223225       1.98159854       1.40120284      -0.01858342       0.00274376       0.00657321
2
Lattice="5.079805034334219 -0.032888132068843286 -0.006857702722699443 -2.5984858600648493 4.40751478322359 -0.07918714021810201 -0.21213863274353562 0.033625956736942166 8.77481218829576" Properties=species:S:1:pos:R:3:dft_force:R:3 dft_energy=-8.426002296308777 volume=195.71931228601892 dft_virial="1.904727770616012e-05 -2.5529234384304516e-05 6.638208740038607e-07 -2.5529234384304502e-05 1.56422708002051e-05 3.349307046676785e-05 6.63820874003861e-07 3.3493070466767864e-05 1.4432218485984982e-05" id=2357 pbc="T T T"
Si       0.09386154      -0.02612567       0.12239845      -0.00193768       0.00081601      -0.00251210
Si       0.28781145       2.88224466       4.35189155       0.00193768      -0.00081601       0.00251209
2
Lattice="4.873748126074828 0.1845685490373529 -0.0868898906692116 -2.309576366515203 4.2456762379584605 0.22613827189533947 -0.05390969114357655 -0.14726964501554313 9.058097006521763" Properties=species:S:1:pos:R:3:dft_force:R:3 dft_energy=-8.422097551481285 volume=191.40523549432905 dft_virial="-0.0002455752646748177 9.645822224220567e-05 -8.728402690467074e-07 9.645822224220571e-05 -0.00017872757625065036 1.6096691860741464e-05 -8.72840269046707e-07 1.6096691860741464e-05 -5.8359463341398074e-05" id=2346 pbc="T T T"
Si       0.09386699      -0.02612939       0.12239629      -0.00078635      -0.00026267      -0.01137106
Si       0.28781115       2.88224683       4.35188773       0.00078634       0.00026267       0.01137105
2
Lattice="5.004070178081412 -0.23283359045214982 -0.029518863772203013 -2.4906168535696636 4.52886014480941 0.1195144437381921 0.1266649595239023 -0.017001828148735562 8.846738150366294" Properties=species:S:1:pos:R:3:dft_force:R:3 dft_energy=-8.424765976713404 volume=195.38338329063822 dft_virial="-3.654332373976797e-05 -3.132353244134883e-05 2.2775271930103885e-06 -3.1323532441348814e-05 -3.6341181039945076e-05 1.7330208639755407e-05 2.2775271930103847e-06 1.7330208639755407e-05 9.982628004150358e-06" id=2332 pbc="T T T"
Si       0.09386667      -0.02612845       0.12239973      -0.00015406       0.00061803      -0.00740082
Si       0.28780582       2.88224812       4.35188869       0.00015406      -0.00061803       0.00740083
2
Lattice="7.071328702183886 0.0 0.0 3.424060905623795 6.301800098892155 0.0 3.5740635859443395 2.1615216536784456 5.748705608106062" Properties=species:S:1:pos:R:3:dft_force:R:3 dft_energy=-8.458524093685716 volume=256.1743936887414 dft_virial="-0.00029672865894054737 0.009183377450329409 0.010537200723919667 0.009183377450329405 -9.627690939192256e-05 0.006308919976950983 0.010537200723919667 0.006308919976950987 -0.0004158470545399114" id=234 pbc="T T T"
Si       0.00000000       0.00000000       0.00000000       0.00820685      -0.00713339       0.01584451
Si       3.61064634       2.08460704       1.47403710      -0.00820685       0.00713339      -0.01584451
