4
Lattice="3.7954909173106337 -0.014522444212093397 -0.09262084308604934 0.023697020555574554 3.8365983009273243 0.04455931224092765 0.046222321578136834 -0.06197170530123463 3.974632165914056" Properties=species:S:1:pos:R:3:dft_force:R:3 dft_energy=-458.3181047913432 volume=57.90607526854354 dft_virial="-0.0012006863212177085 -0.0006990039290332764 -0.00043155397012413374 -0.0006990039290332764 -0.0024437757312583447 0.00032502807178401465 -0.00043155397012413374 0.00032502807178401465 -0.0027178840635990525" id=2283 pbc="T T T"
Si       0.04967176      -0.01382525       0.06476836       3.73512259      -1.40519501      -1.94876499
Si       2.09139070       1.91567068      -0.02341394      -3.97932149       0.71646838      -2.70045461
Si       2.09700688       0.07674370       1.89213943      -3.87887477      -1.04882006       2.20436958
Si       0.05425471       1.89274356       1.89251156       4.12307716       1.73754484       2.44485300
2
Lattice="2.704818351997168 0.0571930072057803 0.020550301809696372 -1.3521877510868325 2.2619843584882426 -0.07695969932778358 -0.0734888707110791 -0.042812052937296216 4.6499481467675015" Properties=species:S:1:pos:R:3:dft_force:R:3 dft_energy=-229.27629230287437 volume=28.805201179040026 dft_virial="0.00012043156514345268 0.00139614014288269 -1.8804376053430198e-05 0.0013961401428826893 -0.0012867255072731836 -0.0005019834230981312 -1.8804376053430225e-05 -0.0005019834230981313 0.0006750708455290981" id=2375 pbc="T T T"
Si       0.04967187      -0.01382651       0.06477099      -0.46105843       0.13968530      -0.84851163
Si       0.15230064       1.52521881       2.30291874       0.46105839      -0.13968524       0.84851220
2
Lattice="3.5648625792273427 0.0 0.0 1.9423882258629834 3.209884720703437 0.0 1.8185862752041357 0.9488866218221216 2.8893678484451377" Properties=species:S:1:pos:R:3:dft_force:R:3 dft_energy=-229.5887803508569 volume=33.06245241921634 dft_virial="-0.029818661657191686 0.3404061425282528 0.3509929661080814 0.34040614252825285 -0.017510084056729696 0.17771884547453473 0.35099296610808145 0.17771884547453465 -0.03465625172403776" id=309 pbc="T T T"
Si       0.00000000       0.00000000       0.00000000       2.24061917      -4.90453923       4.36352627
Si       1.80670557       1.04310290       0.73758338      -2.24061961       4.90453960      -4.36352638
2
Lattice="3.93551243150519 0.0 0.0 1.967073216024804 3.256572702095986 0.0 1.7283743111580299 1.085622567326138 3.061915779676321" Properties=species:S:1:pos:R:3:dft_force:R:3 dft_energy=-230.15711158024016 volume=39.24237717404782 dft_virial="0.0030527526866387564 0.2635564908971523 0.24340464066785994 0.26355649089715216 -0.006574743640484814 0.15697332297941696 0.24340464066785986 0.15697332297941696 -0.008646546068763281" id=224 pbc="T T T"
Si       0.00000000       0.00000000       0.00000000      -0.79696415       4.48527501       4.52917563
Si       1.93079671       1.11474581       0.78824429       0.79696424      -4.48527456      -4.52917525
4
Lattice="3.826109635107572 -0.05608170764868771 0.002816468877498955 0.07731905918456106 3.808625782075745 -0.0617563953870462 0.008079416779955976 -0.09344604275716678 3.8877926405238683" Properties=species:S:1:pos:R:3:dft_force:R:3 dft_energy=-458.3396772922047 volume=56.64846799249142 dft_virial="-0.0026830232175508893 -0.0009540804067722388 3.027302361888373e-06 -0.0009540804067722392 -0.003569743144818347 0.00043609591873385414 3.0273023618883705e-06 0.0004360959187338539 -0.0047220598788776345" id=2323 pbc="T T T"
Si       0.04966981      -0.01382484       0.06476895       3.07595794      -1.34257743      -1.95035154
Si       2.09138761       1.91567202      -0.02341353      -2.83544530       0.57651300      -1.17109174
Si       2.09700799       0.07674263       1.89213855      -3.41055266      -1.04538336       1.74993982
Si       0.05425405       1.89274343       1.89251305       3.17003914       1.81144573       1.37150703
2
Lattice="2.7152757478293825 -0.01568831374743718 -0.05888491653147141 -1.280321589729024 2.3097915194347434 -0.024851460095473753 0.11026389605442703 0.10199923934829826 4.617786879585345" Properties=species:S:1:pos:R:3:dft_force:R:3 dft_energy=-229.27200468897985 volume=28.898330035198025 dft_virial="0.0003371026034516907 0.0005178795962428257 0.00010502792940337534 0.000517879596242826 0.00015248907737829053 -7.632560353139421e-05 0.00010502792940337538 -7.632560353139418e-05 0.0008743036615318877" id=2338 pbc="T T T"
Si       0.04967142      -0.01382500       0.06477032      -0.03597718       0.12025559      -0.72813046
Si       0.15230103       1.52521773       2.30292106       0.03597707      -0.12025551       0.72813224
2
Lattice="3.6165835586139945 0.0 0.0 1.672047333607094 3.1766287339575796 0.0 1.8043402808818634 1.028217590204838 2.9777128132353345" Properties=species:S:1:pos:R:3:dft_force:R:3 dft_energy=-229.84332628885957 volume=34.20958244406519 dft_virial="-0.02223036769108943 0.2783751695251163 0.32202344973653685 0.2783751695251163 -0.01935047748180244 0.18113476673289788 0.32202344973653696 0.18113476673289797 -0.021065873242920485" id=284 pbc="T T T"
Si       0.00000000       0.00000000       0.00000000       4.49437428       0.71922068       2.14860482
Si       1.83770337       1.06099720       0.75023772      -4.49437432      -0.71922075      -2.14860527
2
Lattice="3.738506510021716 0.0 0.0 1.8033512812760282 3.203789723132593 0.0 1.8486362632277409 0.9987236019596395 3.013410799007936" Properties=species:S:1:pos:R:3:dft_force:R:3 dft_energy=-230.06783474478559 volume=36.092792563003016 dft_virial="-0.010376547541813356 0.2759511125214144 0.30158389463616736 0.2759511125214142 -0.01388742039775261 0.16284343940627694 0.3015838946361673 0.16284343940627702 -0.015455598976810613" id=250 pbc="T T T"
Si       0.00000000       0.00000000       0.00000000       1.50748464       3.51236281       3.53740601
Si       1.87711343       1.08375333       0.76632844      -1.50748455      -3.51236316      -3.53740636
2
Lattice="2.8143656483371946 -0.015513533817095559 -0.11120021568125772 -1.4302221599862917 2.3209572949846344 0.06543750391994382 0.07056765187532814 0.017768472918391683 4.569408598866463" Properties=species:S:1:pos:R:3:dft_force:R:3 dft_energy=-229.25742296524186 volume=29.763789393518415 dft_virial="0.0017725972529543201 -0.001042756827985876 -0.0003854433801169201 -0.0010427568279858751 0.0034988012842768396 1.675158900447374e-05 -0.00038544338011691994 1.67515890044737e-05 0.00177549250172972" id=2355 pbc="T T T"
Si       0.04967120      -0.01382687       0.06477015      -0.24525721       0.16963999      -1.19439229
Si       0.15230251       1.52521796       2.30292078       0.24525719      -0.16963982       1.19439168
4
Lattice="3.9679575085742345 0.0012330795085573115 0.07771234902781575 0.07110608166073745 3.878234024333446 0.021202871549615313 -0.0659263537251132 0.09338095278310832 3.939456439933309" Properties=species:S:1:pos:R:3:dft_force:R:3 dft_energy=-458.3704264465747 volume=60.63516839609032 dft_virial="0.0017425910670006255 0.00019638479656542028 0.0006618077465389505 0.00019638479656542034 0.0017177345186136714 0.0003465078343930667 0.0006618077465389504 0.00034650783439306654 0.0019531856161354062" id=2318 pbc="T T T"
Si       0.04966989      -0.01382446       0.06476993       0.76400871      -1.28688209      -0.83887221
Si       2.09138962       1.91567120      -0.02341397      -0.91143429       1.64970482      -2.23735038
Si       2.09700706       0.07674479       1.89213660      -0.53148787      -0.74637622       1.41804834
Si       0.05425715       1.89274248       1.89251341       0.67891222       0.38355140       1.65817468
4
Lattice="3.923040486475872 0.007640626954835251 0.2375098553406686 0.0691164524537023 3.922393456733745 0.0025755389735213434 -0.09040682396844461 -0.042577353030835645 3.781060203061981" Properties=species:S:1:pos:R:3:dft_force:R:3 dft_energy=-458.38406567752 volume=58.26380796540123 dft_virial="-0.0030320249542221036 -0.0006453703782852442 0.0012060845202317566 -0.0006453703782852443 -0.000895576336120768 -9.49622763052607e-05 0.0012060845202317566 -9.496227630526067e-05 0.00021278708499872123" id=2297 pbc="T T T"
Si       0.04967249      -0.01382455       0.06476729       3.14163102      -2.18472675      -0.88181414
Si       2.09139006       1.91567276      -0.02341214      -2.28611464       2.02853063      -0.80773014
Si       2.09700606       0.07674155       1.89213726      -3.03092342      -1.72130419       0.68824297
Si       0.05425452       1.89274491       1.89251384       2.17539579       1.87748730       1.00130148
2
Lattice="3.8674494586316244 0.0 0.0 1.9034262413912462 3.2409227083332763 0.0 1.723932312928384 1.0673525746076264 3.2566647020593193" Properties=species:S:1:pos:R:3:dft_force:R:3 dft_energy=-230.15915526037313 volume=40.81937658878174 dft_virial="0.0002998004568511143 0.24312608007931144 0.2165004125624235 0.24312608007931144 -0.007936091136633204 0.13733047311018315 0.2165004125624235 0.13733047311018315 0.005419771860460098" id=225 pbc="T T T"
Si       0.00000000       0.00000000       0.00000000       2.33534199       6.49280808      -1.94085819
Si       1.93079593       1.11474612       0.78824313      -2.33534205      -6.49280812       1.94085878
2
Lattice="2.6853593397525386 0.008842206475946853 0.024885140082050623 -1.338536336527591 2.3843025897384256 0.038834594522508564 -0.15582338789673406 0.0068778372588443725 4.594375928915757" Properties=species:S:1:pos:R:3:dft_force:R:3 dft_energy=-229.26753806763043 volume=29.47907613974117 dft_virial="0.0017884441219910858 -0.00018522655604066333 4.109968701679109e-05 -0.00018522655604066347 0.0015704301326822819 0.0005565390752261275 4.109968701679116e-05 0.0005565390752261275 0.0009367196514034793" id=2366 pbc="T T T"
Si       0.04967135      -0.01382592       0.06477062      -0.36406012       0.22816462      -2.11039591
Si       0.15230147       1.52521872       2.30292166       0.36405989      -0.22816454       2.11039606
4
Lattice="3.9269895049019943 0.08335632677841369 0.07144658152503154 0.10056676991920761 3.964085660117356 0.11799272297411027 -0.1284079388231357 -0.0037966484868492854 3.9463240571962266" Properties=species:S:1:pos:R:3:dft_force:R:3 dft_energy=-458.347128205553 volume=61.43587704727458 dft_virial="0.0022340733439759823 0.0004833917049770254 0.0007182609993831118 0.0004833917049770254 0.001513069699331708 6.111507901680315e-05 0.0007182609993831118 6.111507901680315e-05 0.0029212650585681613" id=2312 pbc="T T T"
Si       0.04967042      -0.01382438       0.06476794       1.75125958      -1.79435476      -0.67522765
Si       2.09138738       1.91566973      -0.02341313      -2.03621097       1.92276566      -2.59552451
Si       2.09700720       0.07674321       1.89213942      -0.68176169      -1.22488746       2.02725760
Si       0.05425407       1.89274276       1.89251449       0.96671273       1.09647296       1.24349161
2
Lattice="3.768792497951264 0.0 0.0 1.8262142721640042 3.253882703168083 0.0 1.817170275768481 1.073749572058109 3.1160487581016727" Properties=species:S:1:pos:R:3:dft_force:R:3 dft_energy=-230.21037833435463 volume=38.212756305143365 dft_virial="-0.006938707987281864 0.2542206040902107 0.2641259607731366 0.2542206040902107 -0.008205530143967795 0.1565261562273926 0.26412596077313666 0.15652615622739263 -0.004031110651742934" id=248 pbc="T T T"
Si       0.00000000       0.00000000       0.00000000       2.20504063       2.08399992      -0.30002268
Si       1.89292530       1.09288129       0.77278321      -2.20504059      -2.08399996       0.30002239
4
Lattice="3.8547388636974196 -0.04182657333005819 0.11820835288817116 -0.10668749747979735 3.860923811232415 0.12858872875108207 -0.10728489724170423 -0.0971290112893231 3.718716687908931" Properties=species:S:1:pos:R:3:dft_force:R:3 dft_energy=-458.3340777304606 volume=55.42743035024326 dft_virial="-0.006997283272155821 -0.00011373424704932023 0.0005353085565465319 -0.00011373424704932026 -0.006156393585059307 -0.0006887248218548861 0.0005353085565465317 -0.0006887248218548857 -0.004694544658872378" id=2294 pbc="T T T"
Si       0.04966957      -0.01382598       0.06476924       3.39693301      -1.38684370      -0.07467883
Si       2.09139084       1.91567050      -0.02341424      -3.40721930       1.62827358       0.40159703
Si       2.09700543       0.07674471       1.89213933      -3.97623363      -1.96068663      -0.01070589
Si       0.05425518       1.89274463       1.89251161       3.98651921       1.71925215      -0.31621207
4
Lattice="3.903135484408992 0.09133987359657854 -0.06061662584130029 -0.014848354082202324 3.98046117359091 -0.02131754150391371 0.02780917891667767 -0.06731150317306316 3.8097423016307577" Properties=species:S:1:pos:R:3:dft_force:R:3 dft_energy=-458.3690149938506 volume=59.19538167762505 dft_virial="0.0003152460763565667 2.6561341695307352e-05 -0.0005060232430024456 2.6561341695307362e-05 -0.0006426143513284798 -0.0009290724591822198 -0.0005060232430024458 -0.0009290724591822198 0.0010404069335528132" id=2281 pbc="T T T"
Si       0.04966985      -0.01382673       0.06476984       1.96484843      -2.38139855      -0.49551240
Si       2.09138824       1.91567090      -0.02341342      -1.76281015       1.99636883      -0.57218224
Si       2.09700822       0.07674150       1.89213831      -1.80179266      -1.82660264       0.41019826
Si       0.05425728       1.89274550       1.89251139       1.59974944       2.21163282       0.65749504
2
Lattice="2.6437396863400133 -0.022325821102064818 0.023637440579320098 -1.408246678744599 2.4035204320791728 0.029830878110931342 -0.0909752237419094 0.012926194848277096 4.492138809662265" Properties=species:S:1:pos:R:3:dft_force:R:3 dft_energy=-229.2797090546533 volume=28.40686380615127 dft_virial="-0.0003821451724888992 -0.00020876491648950588 -6.055309674496245e-07 -0.00020876491648950593 -0.0012043766686901465 0.00030128703610790016 -6.055309674495988e-07 0.00030128703610790016 -0.002873440518160118" id=2344 pbc="T T T"
Si       0.04967204      -0.01382681       0.06476692      -0.36689767       0.21185857      -1.16914347
Si       0.15230128       1.52521731       2.30292214       0.36689765      -0.21185866       1.16914358
2
Lattice="2.682288900976259 0.029662778177927413 0.06839983273931044 -1.3370018571391564 2.264091367648496 0.011844305279463174 -0.053695818599581564 0.04429715234541123 4.766217040428642" Properties=species:S:1:pos:R:3:dft_force:R:3 dft_energy=-229.2398670826064 volume=29.13684681494554 dft_virial="0.000393171458251291 0.000676761637300359 0.0008547718706295919 0.000676761637300359 -0.0018313386384661283 0.0005081010290597671 0.0008547718706295923 0.0005081010290597672 -0.0007904398302290071" id=2363 pbc="T T T"
Si       0.04967047      -0.01382671       0.06476932      -0.28747151       0.23268278      -4.01935039
Si       0.15230236       1.52521845       2.30292128       0.28747096      -0.23268232       4.01935902
2
Lattice="2.6631003186238513 -0.027863268895120162 0.02992204807459564 -1.264686425960404 2.363109668184845 -0.03457346622077727 0.048001380869094404 0.03535253591027977 4.649733386853094" Properties=species:S:1:pos:R:3:dft_force:R:3 dft_energy=-229.26732871464156 volume=29.096413969875332 dft_virial="8.585833704222946e-05 0.0004105278564531313 -0.00017665703781293373 0.0004105278564531311 0.000824956709437555 -0.00027971357085871377 -0.00017665703781293373 -0.0002797135708587139 0.0010806478843025202" id=2369 pbc="T T T"
Si       0.04967085      -0.01382626       0.06476682      -0.02848210       0.13076453      -1.70989586
Si       0.15230271       1.52521886       2.30291988       0.02848208      -0.13076450       1.70989635
2
Lattice="3.757496502453272 0.0 0.0 1.5682623749704927 3.2545767028914896 0.0 1.9935182054851779 1.104951559622586 3.10077576418871" Properties=species:S:1:pos:R:3:dft_force:R:3 dft_energy=-230.12400497184805 volume=37.91957465930812 dft_virial="-0.007371363520314299 0.21636256498013073 0.2969807085565816 0.21636256498013065 -0.008217238314487672 0.16235693513687932 0.2969807085565815 0.16235693513687932 -0.004551569734121738" id=256 pbc="T T T"
Si       0.00000000       0.00000000       0.00000000       1.39198811      -0.51044279      -1.21521625
Si       1.87711156       1.08375158       0.76632882      -1.39198804       0.51044286       1.21521642
2
Lattice="2.706155811464124 0.0414587134766684 -0.03577270574282148 -1.3515279813497831 2.308022870139637 -0.022265451126125213 -0.043199692782802716 -0.05679627736389661 4.645446908561466" Properties=species:S:1:pos:R:3:dft_force:R:3 dft_energy=-229.27556969542414 volume=29.26545665744122 dft_virial="0.0017333356420738467 0.00102026248776334 4.214981600059649e-05 0.0010202624877633396 0.000866043702625705 0.00011968370469728506 4.2149816000596465e-05 0.00011968370469728506 0.001019885999988857" id=2334 pbc="T T T"
Si       0.04967034      -0.01382687       0.06476741      -0.46900768       0.14861289      -0.99718097
Si       0.15230253       1.52521817       2.30291965       0.46900762      -0.14861270       0.99717895
2
Lattice="2.6547707019436118 -0.08756006510301768 0.007505447008711093 -1.3191513042534775 2.4309225911580676 0.004825448076822168 0.001994509205090216 -0.07915732845192054 4.833737373518477" Properties=species:S:1:pos:R:3:dft_force:R:3 dft_energy=-229.2082643501665 volume=30.638167334439668 dft_virial="0.0019103000139150288 0.00029759725720779584 0.0004897611653462795 0.00029759725720779616 0.004126757078770967 -0.0005962337858053916 0.0004897611653462794 -0.0005962337858053914 0.002695842500761773" id=2372 pbc="T T T"
Si       0.04967233      -0.01382659       0.06477104      -0.30078740       0.04461130      -3.10821612
Si       0.15230109       1.52521879       2.30292192       0.30078696      -0.04461090       3.10821622
4
Lattice="3.9055368534519284 0.019672282159630284 -0.026093839600324555 -0.018746412528634765 3.743510698027302 0.1113828256084787 -0.07689477935365738 -0.06626048359194603 3.9192722279777077" Properties=species:S:1:pos:R:3:dft_force:R:3 dft_energy=-458.38541667858823 volume=57.323959261059585 dft_virial="-0.002518401329805816 -0.0005406962124190792 0.0006994786620148774 -0.0005406962124190792 -0.0013514897252213422 0.0010267635151303442 0.0006994786620148774 0.0010267635151303442 -0.0028136841756917445" id=2325 pbc="T T T"
Si       0.04966913      -0.01382595       0.06476890       2.06932037       0.19388432      -2.16714085
Si       2.09138936       1.91567179      -0.02341375      -2.46591425      -0.09634094      -2.21409324
Si       2.09700730       0.07674223       1.89213827      -1.64938748       0.34723381       1.88571202
Si       0.05425549       1.89274501       1.89251263       2.04598338      -0.44477913       2.49552790
2
Lattice="2.712648378876518 -0.022297761113248098 -0.019492322231353148 -1.3449132339860845 2.3476850343323186 -0.05955900626281358 -0.08331570679460273 0.0894186743622707 4.664371461019104" Properties=species:S:1:pos:R:3:dft_force:R:3 dft_energy=-229.27443699202092 volume=29.577778246326137 dft_virial="0.0022214455179481053 0.00029543899228272086 -0.00015287445239320943 0.00029543899228272086 0.001739631264857149 0.0009330311772607913 -0.0001528744523932095 0.0009330311772607916 0.0020833132176216592" id=2341 pbc="T T T"
Si       0.04967157      -0.01382580       0.06476822      -0.38911080       0.29368138      -0.78241890
Si       0.15230080       1.52521957       2.30292274       0.38911095      -0.29368120       0.78241878
2
Lattice="2.7059022815651685 -0.06335955474810853 -0.020926751659662634 -1.2772819409404732 2.3167077966782674 0.01411341437511186 -0.05510882803642797 -0.03478402613685882 4.585260342548766" Properties=species:S:1:pos:R:3:dft_force:R:3 dft_energy=-229.2725654923775 volume=28.37071100777345 dft_virial="-0.0010336853561219435 0.00041717102191277035 -0.00016741637438111407 0.00041717102191277057 -0.0016223004187766459 0.00013107856183887316 -0.00016741637438111407 0.0001310785618388731 -0.0009001002089002451" id=2370 pbc="T T T"
Si       0.04967068      -0.01382562       0.06476677      -0.27464768       0.04864591      -1.28703493
Si       0.15230218       1.52521924       2.30292075       0.27464767      -0.04864584       1.28703424
2
Lattice="3.7111325209315935 0.0 0.0 1.695173324390252 3.208526721244666 0.0 1.8380072674639172 0.8548796592885088 3.109798760592603" Properties=species:S:1:pos:R:3:dft_force:R:3 dft_energy=-230.07882142520324 volume=37.029206831483314 dft_virial="-0.012022521937567775 0.24776430286752257 0.28017364777971443 0.24776430286752257 -0.01242202867588597 0.12720668973642563 0.28017364777971443 0.12720668973642563 -0.004754913173850328" id=262 pbc="T T T"
Si       0.00000000       0.00000000       0.00000000       2.08686451       3.06632533      -2.50890170
Si       1.86282448       1.07550250       0.76049507      -2.08686415      -3.06632490       2.50890169
2
Lattice="3.5842405715042625 0.0 0.0 1.8250552726259228 3.0365797897739557 0.0 1.810865278281332 1.0970295627798905 2.8440398665105624" Properties=species:S:1:pos:R:3:dft_force:R:3 dft_energy=-229.15570430465243 volume=30.95405347672129 dft_virial="-0.03124451068167767 0.3674883103429396 0.3889170234785392 0.3674883103429396 -0.04214072646448775 0.23967495755538032 0.3889170234785392 0.23967495755538032 -0.048447430675267134" id=320 pbc="T T T"
Si       0.00000000       0.00000000       0.00000000       0.68356627       6.02208858       7.95295060
Si       1.79778460       1.03795203       0.73394431      -0.68356585      -6.02208827      -7.95295052
4
Lattice="3.921804956968291 -0.19047953408455928 -0.15368347874959284 -0.085414315958204 3.7462037769539775 -0.011602955375652953 -0.07431159038318494 -0.0458966817079203 3.915866529335046" Properties=species:S:1:pos:R:3:dft_force:R:3 dft_energy=-458.35430585115483 volume=57.42209477235459 dft_virial="-0.0047554490710192965 -0.0026529496539663177 -0.0006231150639847447 -0.0026529496539663185 -0.0014577683306010013 0.0009949129823949893 -0.0006231150639847451 0.0009949129823949897 -0.0016629986035309177" id=2298 pbc="T T T"
Si       0.04967227      -0.01382738       0.06476856       3.67032809       0.83227681      -1.97688710
Si       2.09138832       1.91567039      -0.02341526      -4.79762076      -1.30458699      -1.55087945
Si       2.09700735       0.07674356       1.89213777      -2.77780167       0.18190259       1.69231163
Si       0.05425697       1.89274325       1.89251167       3.90509694       0.29040867       1.83544947
4
Lattice="3.8597909416839187 -0.006257327506147957 0.025912669672529663 -0.12078990185929722 3.756842302714003 -0.0811070676748538 -0.05222231918684338 -0.06687286334788267 3.977381394818353" Properties=species:S:1:pos:R:3:dft_force:R:3 dft_energy=-458.3502943418761 volume=57.655845101234014 dft_virial="-0.001311266515995001 -0.0017475510181563809 0.0005931931138740259 -0.0017475510181563809 -0.0015748083926023244 0.00017779414443511054 0.0005931931138740259 0.00017779414443511054 -0.003424990700306257" id=2305 pbc="T T T"
Si       0.04967259      -0.01382427       0.06476895       3.21219377       0.10376324      -2.65852972
Si       2.09138840       1.91566996      -0.02341552      -3.34081156      -1.52241809      -2.50394603
Si       2.09700717       0.07674445       1.89213756      -3.04660694       0.39032480       2.65789154
Si       0.05425674       1.89274385       1.89251153       3.17522897       1.02832891       2.50457757
2
Lattice="3.5830125719936796 0.0 0.0 1.780530290371313 3.120023756517441 0.0 2.051261182471768 0.9100396373045511 2.9072468413194823" Properties=species:S:1:pos:R:3:dft_force:R:3 dft_energy=-229.52331699818478 volume=32.500357649452575 dft_virial="-0.028335394469692035 0.32540899435198944 0.4052773620001196 0.32540899435198944 -0.027553500911758733 0.17579021997675254 0.4052773620001195 0.17579021997675248 -0.031907318346181913" id=316 pbc="T T T"
Si       0.00000000       0.00000000       0.00000000       1.36680707       0.76353914       1.94834635
Si       1.80670816       1.04310270       0.73758597      -1.36680732      -0.76353958      -1.94834623
2
Lattice="2.6648808979142027 0.092156133271259 0.012697674939353492 -1.3341304282835615 2.343200626119575 -0.02226959112447522 -0.10774358705889384 -0.04671065138351344 4.564310150898446" Properties=species:S:1:pos:R:3:dft_force:R:3 dft_energy=-229.27905305835026 volume=29.063773007852625 dft_virial="0.0007305973098354667 9.396289785152598e-05 0.0002968003465684795 9.396289785152614e-05 0.0020309702585214013 0.000230906463176114 0.0002968003465684796 0.00023090646317611401 -0.0004852393266428111" id=2374 pbc="T T T"
Si       0.04967147      -0.01382714       0.06476864      -0.36195643       0.10941435      -0.56588034
Si       0.15230243       1.52521851       2.30291997       0.36195637      -0.10941432       0.56588059
2
Lattice="3.832875472411054 0.0 0.0 1.9184442354058386 3.4097506410470615 0.0 2.1555371409126822 1.2544985000207927 3.0910087680813376" Properties=species:S:1:pos:R:3:dft_force:R:3 dft_energy=-230.18226596046674 volume=40.396856002206924 dft_virial="-0.0017102760025113526 0.23730444159753472 0.2964899627537702 0.23730444159753472 0.003441953107815993 0.171106566083438 0.29648996275377026 0.17110656608343808 -0.00439047195802741" id=237 pbc="T T T"
Si       0.00000000       0.00000000       0.00000000      -3.29489691      -6.28320297      -1.95959144
Si       1.91067273       1.10312535       0.78002843       3.29489674       6.28320257       1.95959129
2
Lattice="3.59620256673682 0.0 0.0 1.7031233212217882 3.190009728624597 0.0 1.8257182723616847 1.3025754808597565 2.9396228284160624" Properties=species:S:1:pos:R:3:dft_force:R:3 dft_energy=-229.7290634248064 volume=33.723121368865904 dft_virial="-0.024730232451732854 0.28890024102914286 0.336611226002844 0.28890024102914286 -0.018380375628641855 0.24046542599199167 0.336611226002844 0.24046542599199167 -0.025407873504288758" id=295 pbc="T T T"
Si       0.00000000       0.00000000       0.00000000       4.29999300      -1.99443586       2.04626600
Si       1.82655893       1.05456350       0.74568824      -4.29999343       1.99443537      -2.04626637
2
Lattice="2.663536498450012 -0.053080278844904356 -0.028082458807762223 -1.3920901351837744 2.3391413677373887 -0.007358367067329666 -0.00683976727401713 0.020630681777661013 4.768434699544796" Properties=species:S:1:pos:R:3:dft_force:R:3 dft_energy=-229.25457547342188 volume=29.357607460421388 dft_virial="-3.571529774594633e-05 -0.0011506879222787628 0.0003339773219295807 -0.0011506879222787625 0.0003776894553510049 9.918745916396053e-05 0.0003339773219295807 9.918745916396054e-05 0.0006753792922238271" id=2335 pbc="T T T"
Si       0.04967210      -0.01382698       0.06477055      -0.48916306       0.13838348      -2.31677360
Si       0.15230191       1.52521832       2.30292228       0.48916282      -0.13838322       2.31677068
2
Lattice="3.6401045492397257 0.0 0.0 2.0720141742006826 3.101318763972298 0.0 2.0872411681319782 1.168942534119043 2.939917828298491" Properties=species:S:1:pos:R:3:dft_force:R:3 dft_energy=-229.61013862157716 volume=33.18909850507946 dft_virial="-0.021998730602533805 0.37092900504959636 0.39328530460305106 0.3709290050495965 -0.026228311898274362 0.22183952945624497 0.3932853046030512 0.2218395294562449 -0.024501548976812594" id=325 pbc="T T T"
Si       0.00000000       0.00000000       0.00000000      -5.20090012      -2.97902797      -4.34140396
Si       1.79778699       1.03795184       0.73394461       5.20090149       2.97902846       4.34140436
2
Lattice="3.7075445223615873 0.0 0.0 1.7652222964722997 3.1731597353401457 0.0 1.7822832896726566 1.144347543921353 3.129966752554669" Properties=species:S:1:pos:R:3:dft_force:R:3 dft_energy=-230.07093536686003 volume=36.822903871484264 dft_virial="-0.01183709036636297 0.2656978700367166 0.27205988819579685 0.26569787003671663 -0.017017852087775998 0.17737853384470956 0.27205988819579696 0.17737853384470953 -0.004049014583626648" id=254 pbc="T T T"
Si       0.00000000       0.00000000       0.00000000       3.96958470       4.62438774      -2.11805423
Si       1.87711210       1.08375162       0.76632854      -3.96958474      -4.62438790       2.11805407
2
Lattice="3.7813924929295477 0.0 0.0 1.9637922173324427 3.1690217369893414 0.0 1.9034202413936376 0.8801726492080112 3.099188764821207" Properties=species:S:1:pos:R:3:dft_force:R:3 dft_energy=-230.0857814125491 volume=37.13855523247279 dft_virial="-0.008337506896162443 0.29175548744689334 0.28864980452154576 0.29175548744689334 -0.015341682588761084 0.13338197965508103 0.28864980452154576 0.13338197965508106 -0.005258598622501301" id=277 pbc="T T T"
Si       0.00000000       0.00000000       0.00000000      -4.88336325       2.24727589      -4.99876892
Si       1.84975145       1.06795595       0.75515763       4.88336289      -2.24727599       4.99876886
2
Lattice="3.733441512040366 0.0 0.0 1.7015803218367491 3.113839758982067 0.0 1.6526793413261893 0.9273206304172273 3.0684447770741947" Properties=species:S:1:pos:R:3:dft_force:R:3 dft_energy=-229.92848456297708 volume=35.67170956419905 dft_virial="-0.013581855149991594 0.26732680852410234 0.26369221864114484 0.26732680852410223 -0.022932389111700542 0.1507884703940603 0.2636922186411447 0.15078847039406024 -0.008867255089434343" id=299 pbc="T T T"
Si       0.00000000       0.00000000       0.00000000      -3.10689498       3.46617530      -5.22575901
Si       1.81625752       1.04861749       0.74148354       3.10689525      -3.46617541       5.22575877
2
Lattice="2.675241983784802 -0.010239735918962798 0.09660986149622977 -1.3343374482010542 2.3415110067929716 -0.03875873455274248 0.04731340114328809 -0.03345462666668973 4.544780578681938" Properties=species:S:1:pos:R:3:dft_force:R:3 dft_energy=-229.26837957330062 volume=28.39706198527131 dft_virial="-0.0007889228447815167 -1.1499351630038175e-05 0.0013417672560598016 -1.1499351630038193e-05 -0.0001101976519180267 -8.972228444874225e-05 0.0013417672560598016 -8.972228444874229e-05 -0.002539379236030988" id=2360 pbc="T T T"
Si       0.04967108      -0.01382673       0.06477116      -0.11740683      -0.04695912      -1.43694900
Si       0.15230082       1.52521879       2.30292285       0.11740680       0.04695922       1.43694801
2
Lattice="3.527965593932602 0.0 0.0 1.7053303203421908 3.151954743791376 0.0 1.5757463719877527 1.283112488616714 3.0087038008839055" Properties=species:S:1:pos:R:3:dft_force:R:3 dft_energy=-229.61774766002407 volume=33.456749829609514 dft_virial="-0.03289383566419442 0.2958020297788081 0.2852934911630144 0.29580202977880804 -0.023282270347695703 0.23284461499804252 0.2852934911630143 0.23284461499804252 -0.01662405024875716" id=321 pbc="T T T"
Si       0.00000000       0.00000000       0.00000000       6.64240842      -2.86580206      -5.91962834
Si       1.79778671       1.03795206       0.73394321      -6.64240854       2.86580234       5.91962860
2
Lattice="2.6211736953336673 0.020288091914199884 0.011735325322897035 -1.346797823234983 2.2516900925910135 0.015661083758289666 -0.022037981216783135 -0.04760552102686398 4.732695783788508" Properties=species:S:1:pos:R:3:dft_force:R:3 dft_energy=-229.24017344359865 volume=28.06530373812363 dft_virial="-0.00431084314411917 -0.0004636715924359569 0.0005266645720417944 -0.000463671592435957 -0.005047600599495914 0.00033749777772040703 0.0005266645720417942 0.00033749777772040687 -0.001311462783696881" id=2331 pbc="T T T"
Si       0.04966972      -0.01382517       0.06477071      -0.46935449       0.03484878      -3.61399475
Si       0.15230102       1.52521808       2.30292223       0.46935423      -0.03484826       3.61399264
2
Lattice="3.795930487135444 0.0 0.0 1.7563303000161965 3.3720276560815217 0.0 1.85075826238202 0.9033626399656621 3.0860157700712922" Properties=species:S:1:pos:R:3:dft_force:R:3 dft_energy=-230.19543854033037 volume=39.500948108342826 dft_virial="-0.004963190005733334 0.2232705876492358 0.2594936004993628 0.2232705876492358 0.0011974236512030606 0.12257459931941611 0.2594936004993628 0.1225745993194161 -0.005443177681199126" id=242 pbc="T T T"
Si       0.00000000       0.00000000       0.00000000       1.47317043      -1.16326303       1.04723840
Si       1.89292022       1.09287971       0.77278155      -1.47316977       1.16326533      -1.04723848
2
Lattice="3.5458975867858227 0.0 0.0 1.7319503097328188 3.1030517632816133 0.0 1.8164002760753635 1.2293425100466888 2.9602888201796507" Properties=species:S:1:pos:R:3:dft_force:R:3 dft_energy=-229.54875892732667 volume=32.572365045316026 dft_virial="-0.03272440719881971 0.3179732013008219 0.3495827950942002 0.3179732013008219 -0.03056169631570162 0.2376932455776069 0.3495827950942002 0.2376932455776069 -0.024843576593931414" id=322 pbc="T T T"
Si       0.00000000       0.00000000       0.00000000       3.51385101       0.12797928      -2.31310101
Si       1.79778716       1.03795204       0.73394441      -3.51385072      -0.12797957       2.31310124
2
Lattice="3.8320584727366684 0.0 0.0 2.0410021865604815 3.1911097281861927 0.0 1.9211002343472927 1.1515135410653516 3.122559755506721" Properties=species:S:1:pos:R:3:dft_force:R:3 dft_energy=-230.15592458456246 volume=38.18428152157619 dft_virial="-0.0032703637319123143 0.2921462719272607 0.2793768438033998 0.2921462719272609 -0.01320482970344752 0.17152365462705535 0.27937684380339994 0.17152365462705532 -0.0036446152565690715" id=249 pbc="T T T"
Si       0.00000000       0.00000000       0.00000000      -3.43905530       2.65540168      -2.49391602
Si       1.89292218       1.09288080       0.77278358       3.43905549      -2.65540112       2.49391651
2
Lattice="3.792925488333083 0.0 0.0 1.827084271817267 3.356903662109175 0.0 1.6787803309236644 1.0501335814702402 3.2685296973305364" Properties=species:S:1:pos:R:3:dft_force:R:3 dft_energy=-230.15475796883422 volume=41.61650685302513 dft_virial="-0.003111075115279706 0.21957641328380206 0.20497682943964637 0.21957641328380206 0.00015664878165481236 0.12770794469248842 0.20497682943964637 0.12770794469248842 0.006285918263979632" id=227 pbc="T T T"
Si       0.00000000       0.00000000       0.00000000       6.68523484       2.14585794      -1.72573289
Si       1.93079475       1.11474458       0.78824516      -6.68523305      -2.14585575       1.72573444
2
Lattice="3.8471734667126016 0.0 0.0 2.1272111522019785 3.3524586638807254 0.0 2.066593176361216 1.0638875759885984 3.2319517119086583" Properties=species:S:1:pos:R:3:dft_force:R:3 dft_energy=-230.18932461056596 volume=41.68406494924636 dft_virial="-0.0008639316152905495 0.25858753272926943 0.2591259871146215 0.25858753272926943 0.00032421153969374925 0.13158939524892088 0.2591259871146215 0.13158939524892088 0.005030364988168896" id=238 pbc="T T T"
Si       0.00000000       0.00000000       0.00000000      -5.42837362      -4.38910615      -6.74580784
Si       1.91067028       1.10312656       0.78002831       5.42837481       4.38910665       6.74580677
4
Lattice="3.9747652458610174 -0.09906995051576359 -0.021024671620636728 -0.05876751657826106 3.9337005522273123 0.09770914105811293 0.09914491048588836 -0.05897048649736759 3.9207049074067144" Properties=species:S:1:pos:R:3:dft_force:R:3 dft_energy=-458.35951565862933 volume=61.30956654844274 dft_virial="0.0020465850560834613 -0.0004885004990263595 -0.00017567052847621768 -0.0004885004990263597 0.0019692857268086184 -0.0003020989333742705 -0.00017567052847621773 -0.0003020989333742705 0.0028194770570257764" id=2286 pbc="T T T"
Si       0.04966987      -0.01382645       0.06476861       0.76310910      -1.89035677      -0.46569330
Si       2.09139005       1.91567266      -0.02341270      -0.43216709       1.69451512      -1.77326349
Si       2.09700724       0.07674279       1.89213836      -1.92769081      -1.02765392       1.40799950
Si       0.05425567       1.89274548       1.89251148       1.59675270       1.22349586       0.83096566
2
Lattice="3.6543335435687734 0.0 0.0 1.7403033064037399 3.319859676873021 0.0 1.7362673080122832 1.1674425347168662 3.1609007402259572" Properties=species:S:1:pos:R:3:dft_force:R:3 dft_energy=-230.09183829621657 volume=38.34765133120546 dft_virial="-0.014102395702819607 0.23839469497204224 0.24920700958424308 0.23839469497204224 -0.004450163973219627 0.16546956026318432 0.24920700958424316 0.16546956026318438 -0.0007560313453586105" id=245 pbc="T T T"
Si       0.00000000       0.00000000       0.00000000       9.71844241      -1.03516007      -2.00414841
Si       1.89292208       1.09287827       0.77278333      -9.71844210       1.03516015       2.00414891
2
Lattice="3.700894525011938 0.0 0.0 1.9140882371419177 3.300209684704507 0.0 1.9708112145350278 1.286473487277191 3.1084087611465865" Properties=species:S:1:pos:R:3:dft_force:R:3 dft_energy=-230.1454845835208 volume=37.96525897696478 dft_virial="-0.011770376583204274 0.2683816347716076 0.2928969821537136 0.26838163477160754 -0.005039809448111999 0.19130128683630496 0.29289698215371357 0.19130128683630496 -0.004360965939354105" id=258 pbc="T T T"
Si       0.00000000       0.00000000       0.00000000       1.26947421      -4.24056019      -3.71561449
Si       1.87711377       1.08375196       0.76632844      -1.26947429       4.24056003       3.71561379
2
Lattice="3.6064395626568744 0.0 0.0 2.0363651884085527 3.124745754635493 0.0 2.0748491730707967 0.6859347266213542 2.8802048520970414" Properties=species:S:1:pos:R:3:dft_force:R:3 dft_energy=-229.449558569784 volume=32.45762385338036 dft_virial="-0.025815183878697436 0.37307407265358017 0.41173121881607505 0.3730740726535802 -0.024676522149948223 0.13242441297272944 0.41173121881607516 0.13242441297272942 -0.031555988118769175" id=317 pbc="T T T"
Si       0.00000000       0.00000000       0.00000000      -0.26538769      -0.77578883       1.46405158
Si       1.80670456       1.04310157       0.73758590       0.26538781       0.77578829      -1.46405140
4
Lattice="3.7853668713455626 0.12858533875243314 -0.2764018598402964 0.06489416413649139 3.8430241583663047 -0.07858644867944414 -0.0040163183993000475 0.013129214767363695 3.8353862214103978" Properties=species:S:1:pos:R:3:dft_force:R:3 dft_energy=-458.2155959351922 volume=55.761786901207046 dft_virial="-0.00616559037478189 0.0010855278477601765 -0.0025216692298416703 0.0010855278477601758 -0.0046562182479485065 0.00013831543261713154 -0.002521669229841669 0.00013831543261713156 -0.006433058510299158" id=2316 pbc="T T T"
Si       0.04967111      -0.01382454       0.06476794       5.48087356      -1.88389746       0.37781349
Si       2.09138999       1.91567065      -0.02341439      -6.41295845       1.50445587      -2.78596351
Si       2.09700691       0.07674461       1.89213796      -4.87147788      -0.12732070      -0.35694429
Si       0.05425745       1.89274616       1.89251285       5.80356011       0.50676278       2.76509628
2
Lattice="3.7704474972916655 0.0 0.0 1.749625302688467 3.4112966404309044 0.0 2.025060192914148 1.0751515714993438 3.16808373736318" Properties=species:S:1:pos:R:3:dft_force:R:3 dft_energy=-230.19622994130603 volume=40.74825698079413 dft_virial="-0.00584505359158228 0.21165266787784232 0.26871670330745245 0.21165266787784237 0.002765000791885755 0.13828335316654689 0.26871670330745245 0.13828335316654686 0.001103329671909592" id=241 pbc="T T T"
Si       0.00000000       0.00000000       0.00000000       0.82083980      -4.62882319      -3.45518142
Si       1.89292246       1.09287852       0.77278116      -0.82083976       4.62882240       3.45518167
2
Lattice="3.7178445182565336 0.0 0.0 1.9593802190908405 3.1223177556031696 0.0 1.7845402887731316 1.1838405281814612 3.0058688020137914" Properties=species:S:1:pos:R:3:dft_force:R:3 dft_energy=-229.90772273548868 volume=34.89300262295699 dft_virial="-0.013303238731712375 0.32405876377107146 0.3046380689510632 0.3240587637710714 -0.02367685120100501 0.2077325328716592 0.3046380689510631 0.2077325328716592 -0.017270312410614407" id=272 pbc="T T T"
Si       0.00000000       0.00000000       0.00000000      -1.03993835       4.08487776       0.48775660
Si       1.84975218       1.06795507       0.75515841       1.03993753      -4.08487825      -0.48775718
4
Lattice="3.9512692152253384 -0.18206148743956393 -0.0434154526968118 -0.13589026584106126 3.754590013611651 -0.033393076691220415 0.15420989853978873 0.06887471255004754 3.9910813293582574" Properties=species:S:1:pos:R:3:dft_force:R:3 dft_energy=-458.3448175084731 volume=59.146099731973756 dft_virial="-0.001423851437354896 -0.0029529477473299653 -0.0005017964839912803 -0.002952947747329964 -0.00019458475626759502 -2.2414143897761432e-05 -0.0005017964839912803 -2.241414389776144e-05 3.2165381712844514e-05" id=2319 pbc="T T T"
Si       0.04966939      -0.01382605       0.06476721       4.20569250       1.55122946      -1.96806804
Si       2.09138776       1.91567048      -0.02341572      -3.33293752      -0.91381710      -2.51190697
Si       2.09700804       0.07674220       1.89213705      -3.33799610       0.02668111       2.17721753
Si       0.05425469       1.89274402       1.89251436       2.46524422      -0.66409109       2.30274009
2
Lattice="2.6313782312666594 -0.0009396796254915614 0.016235453529375134 -1.2884296864975497 2.339407637631267 -0.057321187154694295 -0.09195965334956589 -0.19593066191201736 4.79384952941574" Properties=species:S:1:pos:R:3:dft_force:R:3 dft_energy=-229.25763933961338 volume=29.482526321738845 dft_virial="-0.0008941659157740884 0.0011172833377135832 0.0002760671155528171 0.0011172833377135832 0.001503947329276565 -0.000579921818942099 0.0002760671155528171 -0.000579921818942099 0.0017388331741371857" id=2333 pbc="T T T"
Si       0.04966941      -0.01382537       0.06476851      -0.47453081      -0.00738676      -1.87446403
Si       0.15230296       1.52521735       2.30292262       0.47453090       0.00738702       1.87446534
2
Lattice="3.653271543992032 0.0 0.0 1.9228642336442525 3.151560743948404 0.0 1.6057973600109594 1.194050524112277 2.9632988189800185" Properties=species:S:1:pos:R:3:dft_force:R:3 dft_energy=-229.8121505073262 volume=34.11796224371459 dft_virial="-0.019305384191454195 0.32424522283184465 0.2848925153495898 0.32424522283184465 -0.02133084001598204 0.21521864307343783 0.2848925153495898 0.21521864307343783 -0.02178599566400681" id=290 pbc="T T T"
Si       0.00000000       0.00000000       0.00000000       0.72934304       0.39091108       0.47076196
Si       1.82656264       1.05456611       0.74569044      -0.72934473      -0.39091210      -0.47076264
2
Lattice="3.6843705315975597 0.0 0.0 1.6469753435995125 3.169486736804016 0.0 1.7085113190744068 1.0069715986724082 3.1148467585807285" Properties=species:S:1:pos:R:3:dft_force:R:3 dft_energy=-230.00872099098774 volume=36.37382092003815 dft_virial="-0.013902885921494431 0.25031953603273316 0.26520550195250603 0.25031953603273327 -0.01731639168899684 0.15642504743727048 0.26520550195250603 0.15642504743727043 -0.004998296965489127" id=265 pbc="T T T"
Si       0.00000000       0.00000000       0.00000000       4.83792914       4.34903560      -2.32888587
Si       1.86282654       1.07550215       0.76049607      -4.83792994      -4.34903650       2.32888556
4
Lattice="4.037885490704502 -0.04596118168221389 -0.04190114330033841 0.0956178718915863 3.9594109519804563 -0.009037096398273657 0.016648483364762476 -0.13790490503812866 3.962731570657027" Properties=species:S:1:pos:R:3:dft_force:R:3 dft_energy=-458.3009172618865 volume=63.370461888737935 dft_virial="0.004496424435536511 -0.0002349065174944877 -0.0003184223297743266 -0.0002349065174944878 0.0038805688647301296 -0.0006591541036424558 -0.0003184223297743267 -0.0006591541036424558 0.0043775654764735186" id=2280 pbc="T T T"
Si       0.04967069      -0.01382761       0.06476800       0.54998839      -2.71526764      -0.90505180
Si       2.09139087       1.91567291      -0.02341498      -0.33070940       1.07794227      -1.11291068
Si       2.09700681       0.07674201       1.89213721       0.02639170      -0.29809990       1.03099576
Si       0.05425496       1.89274441       1.89251134      -0.24567108       1.93541727       0.98697564
2
Lattice="2.6914514173245467 0.14049329400652866 -0.03353534663451886 -1.3144664461206235 2.2492607335592316 0.07972959822384297 0.08603186571208013 0.1415751935753386 4.702889355667832" Properties=species:S:1:pos:R:3:dft_force:R:3 dft_energy=-229.23653495275838 volume=29.322052185297803 dft_virial="0.0018310490993242246 0.0009526518587274023 0.00022571775703999683 0.0009526518587274027 -0.0020421043842155685 0.0004905512580836286 0.00022571775703999683 0.0004905512580836286 0.0006796663704366574" id=2330 pbc="T T T"
Si       0.04967030      -0.01382611       0.06476826       0.03605991       0.35275082      -3.36928160
Si       0.15230061       1.52521865       2.30292255      -0.03605978      -0.35275050       3.36928236
2
Lattice="3.6194585574681666 0.0 0.0 1.7813342900508795 3.234719710805475 0.0 2.04695518418792 0.94196662458008 2.9377068291796826" Properties=species:S:1:pos:R:3:dft_force:R:3 dft_energy=-229.80370942412125 volume=34.39447748608687 dft_virial="-0.022250468661244863 0.29004115244589906 0.37030604695365255 0.29004115244589906 -0.013007086483631823 0.1638447675572083 0.3703060469536524 0.16384476755720817 -0.02510546974255839" id=296 pbc="T T T"
Si       0.00000000       0.00000000       0.00000000       1.19244309      -3.64505072       2.10655482
Si       1.82655985       1.05456306       0.74568987      -1.19244324       3.64505117      -2.10655503
2
Lattice="2.629926351845304 -0.04785823092614668 0.02537443988704064 -1.3445888141153817 2.382971530268918 -0.037215215167910695 0.15473130833198134 0.06351951468435664 4.712459971853472" Properties=species:S:1:pos:R:3:dft_force:R:3 dft_energy=-229.25567647685392 volume=29.224897460054073 dft_virial="-0.0010050501612806043 -0.00031650180609685914 0.001223101226856275 -0.00031650180609685925 0.0012053780626616753 -0.0003222161355060309 0.001223101226856275 -0.00032221613550603094 0.001335495691700349" id=2358 pbc="T T T"
Si       0.04967191      -0.01382616       0.06477059      -0.08383373       0.13526953      -2.20652693
Si       0.15230248       1.52521824       2.30291979       0.08383364      -0.13526934       2.20652966
2
Lattice="3.626831554529665 0.0 0.0 1.928627231347415 3.188711729141913 0.0 1.9469152240587528 1.3981724427596767 2.971857815568838" Properties=species:S:1:pos:R:3:dft_force:R:3 dft_energy=-229.79279897611121 volume=34.369298832144025 dft_virial="-0.021237694808743292 0.3206285040260124 0.34573372090060794 0.3206285040260125 -0.01680601735469147 0.25126553542243135 0.3457337209006079 0.25126553542243124 -0.019331516988333314" id=291 pbc="T T T"
Si       0.00000000       0.00000000       0.00000000      -0.06161050      -3.61514067      -2.58179188
Si       1.82655838       1.05456435       0.74568964       0.06161040       3.61514046       2.58179178
4
Lattice="3.754906333485582 0.010742085718751751 0.028819558513991823 0.1407556739019574 3.829211193871449 -0.12209316133988438 0.19314667302157357 0.030452217863296962 3.833385422207814" Properties=species:S:1:pos:R:3:dft_force:R:3 dft_energy=-458.2215110472836 volume=55.10439811799381 dft_virial="-0.005737009793646565 0.0005214981197228315 0.0014422046115176448 0.0005214981197228316 -0.0068233796059045315 0.0010799713936304738 0.0014422046115176448 0.0010799713936304736 -0.00811015598265457" id=2303 pbc="T T T"
Si       0.04967169      -0.01382435       0.06477039       5.66241671      -1.48834610      -2.27427775
Si       2.09138849       1.91566933      -0.02341321      -5.52013462       0.94283279       0.91126404
Si       2.09700593       0.07674370       1.89213745      -5.73245151      -0.77427882       1.64142754
Si       0.05425430       1.89274305       1.89251414       5.59015999       1.31980008      -0.27840732
2
Lattice="3.7053875232212574 0.0 0.0 1.917769235674859 3.0148667984276485 0.0 1.8493642629375973 0.8607826569358746 2.942434827295343" Properties=species:S:1:pos:R:3:dft_force:R:3 dft_energy=-229.50928523191146 volume=32.87067453204198 dft_virial="-0.01948958698538843 0.35304257305375175 0.34929450502003767 0.35304257305375186 -0.03909100777080128 0.16825571340974602 0.3492945050200379 0.16825571340974604 -0.026302223483647122" id=318 pbc="T T T"
Si       0.00000000       0.00000000       0.00000000      -5.70509480       7.90921922      -1.79696484
Si       1.79778353       1.03795101       0.73394329       5.70509521      -7.90921898       1.79696505
2
Lattice="3.584302571479552 0.0 0.0 1.7939172850359384 3.237505709695118 0.0 1.8262612721452727 0.906902638554799 2.961173819826935" Properties=species:S:1:pos:R:3:dft_force:R:3 dft_energy=-229.82043129000908 volume=34.3620533597854 dft_virial="-0.026425392871171755 0.29305253033936096 0.32608748103835455 0.2930525303393611 -0.013349729058281395 0.15567222958977237 0.32608748103835455 0.15567222958977228 -0.02246208863470088" id=301 pbc="T T T"
Si       0.00000000       0.00000000       0.00000000       3.03640665      -4.05681972       0.45733978
Si       1.81625742       1.04861702       0.74148384      -3.03640672       4.05682032      -0.45734001
4
Lattice="3.935166541643044 -0.10144241957021827 -0.0060805875765874914 -0.030663217779203143 3.9017703149530787 -0.1136959146865992 -0.07426576040145043 -0.09012535408062416 3.8741570059583377" Properties=species:S:1:pos:R:3:dft_force:R:3 dft_energy=-458.3799750876036 volume=59.42924678420016 dft_virial="-7.29135159458758e-05 -0.0006290522678767757 0.0003107873323403886 -0.0006290522678767757 0.0002255406410568897 -0.0005434449923520682 0.00031078733234038853 -0.0005434449923520681 0.0009251201384578169" id=2313 pbc="T T T"
Si       0.04967227      -0.01382595       0.06477039       0.74248583      -2.39851946      -1.26289517
Si       2.09138939       1.91567250      -0.02341367      -1.37025756       1.29888569      -0.76847044
Si       2.09700792       0.07674369       1.89213761      -1.38763551      -0.92322273       0.69565393
Si       0.05425655       1.89274534       1.89251505       2.01540660       2.02285599       1.33571305
2
Lattice="2.6413124473073863 -0.026267769531004945 0.06315538482948026 -1.3384917165453742 2.27254271428022 -0.07158331147053795 -0.009910936050005677 0.01949753222927671 4.6902232707158875" Properties=species:S:1:pos:R:3:dft_force:R:3 dft_energy=-229.25425477102374 volume=27.991581056205295 dft_virial="-0.003348147117104016 -0.001138021145392628 0.000776120934666459 -0.0011380211453926286 -0.004822355023652295 -0.0005251350554226427 0.0007761209346664593 -0.0005251350554226427 -0.0011243738017605355" id=2371 pbc="T T T"
Si       0.04967108      -0.01382579       0.06477048      -0.36001886       0.00723937      -1.77644436
Si       0.15230052       1.52521933       2.30292200       0.36001878      -0.00723934       1.77644429
4
Lattice="3.9306593034393993 0.1479960110163278 -0.010849135676087092 -0.06083686575352387 3.967761778652243 0.019406632265504802 0.16200991543109927 0.07213417125099329 3.780304723363077" Properties=species:S:1:pos:R:3:dft_force:R:3 dft_energy=-458.37281649711576 volume=58.993349964574094 dft_virial="-0.00022970248809880644 -1.2053401979354437e-05 0.0012999775547136501 -1.2053401979354447e-05 -0.0007798479410681184 0.0006051498169903735 0.0012999775547136508 0.0006051498169903735 0.0012584378257682219" id=2284 pbc="T T T"
Si       0.04967215      -0.01382771       0.06476867       1.97173869      -2.29354652       0.17279587
Si       2.09138754       1.91567253      -0.02341324      -1.62442242       2.02137528      -0.36546626
Si       2.09700882       0.07674267       1.89213685      -2.20697884      -1.80209760       0.73962100
Si       0.05425694       1.89274460       1.89251441       1.85966049       2.07427110      -0.54695119
4
Lattice="3.7812945929685657 -0.15712191737920633 0.02408370040146366 0.06261095504646225 3.887725970550439 0.1994414805127839 -0.1022263392577878 -0.064560354269531 3.866173749140057" Properties=species:S:1:pos:R:3:dft_force:R:3 dft_energy=-458.29984236403686 volume=56.93461690698444 dft_virial="-0.0032555705010612907 -0.002895996370394558 0.00022801438843044462 -0.002895996370394559 -0.005613623974650962 -0.0008505007893785516 0.00022801438843044448 -0.0008505007893785513 -0.004058676344383285" id=2299 pbc="T T T"
Si       0.04967284      -0.01382558       0.06476737       3.86699494      -1.40219711      -1.29043103
Si       2.09138916       1.91567147      -0.02341405      -4.01165137       1.15363571      -2.56937871
Si       2.09700808       0.07674245       1.89213933      -5.15626198      -2.91536017       2.14548388
Si       0.05425636       1.89274399       1.89251351       5.30093548       3.16390871       1.71433403
2
Lattice="3.6241205556101312 0.0 0.0 2.143929145539038 3.4082176416580365 0.0 1.976345212329458 1.185697527441356 3.054082782798154" Properties=species:S:1:pos:R:3:dft_force:R:3 dft_energy=-229.9684678801661 volume=37.72339410235868 dft_virial="-0.016169232252671382 0.3015924654741416 0.3050922300500817 0.3015924654741416 -0.000591740604041538 0.1771099407617871 0.3050922300500818 0.17710994076178715 -0.01026269266501382" id=236 pbc="T T T"
Si       0.00000000       0.00000000       0.00000000       7.04762747      -4.61359964       1.88968477
Si       1.91067301       1.10312689       0.78002801      -7.04762648       4.61360027      -1.88968407
2
Lattice="3.821532476931795 0.0 0.0 2.0228131938096876 3.226747713982707 0.0 2.168476135755858 1.3741524523328212 3.026266793884191" Properties=species:S:1:pos:R:3:dft_force:R:3 dft_energy=-230.0309394887696 volume=37.317262570048186 dft_virial="-0.0030046946524866685 0.2959630353860962 0.33813799202780265 0.2959630353860962 -0.009415968572381589 0.21878769627528155 0.33813799202780265 0.21878769627528155 -0.011867078536608944" id=240 pbc="T T T"
Si       0.00000000       0.00000000       0.00000000      -4.91416864      -1.53668368      -1.18072660
Si       1.89292116       1.09287855       0.77278143       4.91417045       1.53668612       1.18072954
2
Lattice="3.655965542918341 0.0 0.0 2.0482751836618354 3.14288874740462 0.0 1.7257753121938584 0.9548726194364078 2.9716578156485483" Properties=species:S:1:pos:R:3:dft_force:R:3 dft_energy=-229.80676845072347 volume=34.145218895724135 dft_virial="-0.020515906788888805 0.3470132751448159 0.30436148431009274 0.34701327514481595 -0.0215257704802229 0.16846939359775198 0.3043614843100928 0.16846939359775195 -0.020460244033784106" id=308 pbc="T T T"
Si       0.00000000       0.00000000       0.00000000      -3.20245303      -1.87621454      -2.10439990
Si       1.80670543       1.04310264       0.73758330       3.20245335       1.87621480       2.10440023
4
Lattice="3.824225825858363 -0.011201395535694254 0.08089338776001571 0.04044294388150242 3.793487548109075 0.06760294305691007 -0.08355397669964047 -0.1404554240216217 3.8882507803412762" Properties=species:S:1:pos:R:3:dft_force:R:3 dft_energy=-458.3321440599199 volume=56.47076621610693 dft_virial="-0.004271197730366969 0.0001390126815453556 0.0009307872212798875 0.0001390126815453556 -0.0029176368351051954 0.00022903879585121852 0.0009307872212798875 0.00022903879585121852 -0.005195015445061905" id=2292 pbc="T T T"
Si       0.04967023      -0.01382676       0.06476751       3.51442316      -1.14159136      -2.27821130
Si       2.09138770       1.91567249      -0.02341325      -3.09346879       0.45416939      -1.57038126
Si       2.09700536       0.07674319       1.89213873      -3.76737249      -0.59396053       2.07798708
Si       0.05425731       1.89274388       1.89251136       3.34642930       1.28137789       1.77061351
2
Lattice="3.6863965307900997 0.0 0.0 1.774478292783331 3.083386771119077 0.0 1.8555692604646012 0.8719046525032137 2.9624288193267563" Properties=species:S:1:pos:R:3:dft_force:R:3 dft_energy=-229.73247024010604 volume=33.67270282104216 dft_virial="-0.018656167903902152 0.3085185951005156 0.33797410753794427 0.3085185951005157 -0.029395843134165243 0.16046012461908435 0.33797410753794427 0.16046012461908427 -0.02294467608577398" id=298 pbc="T T T"
Si       0.00000000       0.00000000       0.00000000      -2.79879006       5.19087364      -0.31908684
Si       1.81625857       1.04861805       0.74148408       2.79879017      -5.19087364       0.31908697
2
Lattice="2.775920053659651 -0.010082605981586787 0.025695269759174195 -1.4386400266313588 2.2821346504573627 -0.07513194005623534 -0.09245927315044289 -0.10763656710154652 4.734895972911625" Properties=species:S:1:pos:R:3:dft_force:R:3 dft_energy=-229.26297624403554 volume=29.913877689066553 dft_virial="0.002383307503053154 -0.0010724315380407146 0.0007274342111841525 -0.0010724315380407153 0.0007785793098646446 -0.0006258682824541975 0.0007274342111841525 -0.0006258682824541972 0.0035236391029706267" id=2376 pbc="T T T"
Si       0.04967155      -0.01382514       0.06477062      -0.69404858       0.13995599      -1.51749655
Si       0.15229992       1.52521945       2.30292245       0.69404840      -0.13995595       1.51749696
4
Lattice="3.7675111684619362 -0.020237061934537833 -0.07628172959798779 -0.00880883648924643 3.858844302061201 -0.08639719556647826 -0.0026738389343439854 0.06193381531633564 3.878714564141927" Properties=species:S:1:pos:R:3:dft_force:R:3 dft_energy=-458.2824439817469 volume=56.40839740587279 dft_virial="-0.003110821130255222 -0.0011147573406306143 -0.0008303696110123798 -0.0011147573406306143 -0.004822335006192309 0.0005670658283506164 -0.0008303696110123798 0.0005670658283506164 -0.005054603479999315" id=2309 pbc="T T T"
Si       0.04967039      -0.01382752       0.06477051       4.10325849      -1.30437480      -1.50237980
Si       2.09138949       1.91567219      -0.02341446      -4.32732731       1.19083634      -2.06322656
Si       2.09700868       0.07674309       1.89213841      -4.48861023      -1.91576003       1.45697397
Si       0.05425430       1.89274506       1.89251223       4.71267877       2.02929795       2.10863399
2
Lattice="2.6183625364540526 -0.03139440748778816 -0.054822798150424915 -1.31035270776015 2.376035083033433 -0.020647771770849813 0.1186027627309795 0.04425298236301514 4.575507846435614" Properties=species:S:1:pos:R:3:dft_force:R:3 dft_energy=-229.2731802614216 volume=28.298575753859364 dft_virial="-0.0023787500292860894 0.0005533449476541434 -7.568551650764639e-05 0.0005533449476541431 -0.0003638152482072404 -0.0004258381829602235 -7.568551650764632e-05 -0.0004258381829602235 -0.0010683956277107126" id=2373 pbc="T T T"
Si       0.04967023      -0.01382522       0.06476762      -0.12010576       0.23765363      -0.57726031
Si       0.15230016       1.52521945       2.30292168       0.12010580      -0.23765369       0.57726031
2
Lattice="3.6873185304226377 0.0 0.0 1.70325532116918 3.236598710056602 0.0 2.0281481916834294 1.0346825876282193 3.020596796143963" Properties=species:S:1:pos:R:3:dft_force:R:3 dft_energy=-230.03391156556762 volume=36.04892099161865 dft_virial="-0.014008298080057041 0.2578542992657274 0.3342005376237192 0.2578542992657274 -0.011400927809309416 0.16653336510116182 0.3342005376237192 0.16653336510116176 -0.014071068137068536" id=267 pbc="T T T"
Si       0.00000000       0.00000000       0.00000000       1.96959387      -0.34105021       1.22323977
Si       1.86282475       1.07550348       0.76049566      -1.96959325       0.34105119      -1.22323901
2
Lattice="3.848914466018728 0.0 0.0 1.9048922408069733 3.358777661362295 0.0 1.951185222356949 1.0451155834701584 3.0769727736753696" Properties=species:S:1:pos:R:3:dft_force:R:3 dft_energy=-230.2314203608894 volume=39.77802070506421 dft_virial="-0.00274447621832737 0.2421999849223865 0.2721756766278059 0.2421999849223865 0.0006558072358956363 0.14412595112284474 0.2721756766278059 0.14412595112284474 -0.005750078190950451" id=251 pbc="T T T"
Si       0.00000000       0.00000000       0.00000000      -5.00844910      -5.25063981      -2.07971273
Si       1.87711075       1.08374957       0.76632622       5.00845005       5.25064105       2.07971336
2
Lattice="3.694531527547904 0.0 0.0 1.5828043691747944 3.165034738578356 0.0 2.0481241837220163 1.2113505172173809 2.992811807217645" Properties=species:S:1:pos:R:3:dft_force:R:3 dft_energy=-229.88047551618317 volume=34.99590803945014 dft_virial="-0.015590894447121991 0.2510685125285426 0.3517110301867411 0.2510685125285427 -0.018351639669324633 0.20812296385092274 0.35171103018674116 0.20812296385092277 -0.01586726914980243" id=306 pbc="T T T"
Si       0.00000000       0.00000000       0.00000000      -3.39363784      -2.76746350      -3.52063410
Si       1.81626000       1.04861721       0.74148408       3.39363780       2.76746351       3.52063402
2
Lattice="2.7013732933701924 -0.04172869336906817 0.05891286652033198 -1.4063860394861554 2.3625999283880015 -0.040364983912573295 -0.030540647828053286 -0.09219175325706269 4.733284883553723" Properties=species:S:1:pos:R:3:dft_force:R:3 dft_energy=-229.25344707719694 volume=29.933079968030047 dft_virial="0.0026785039596859037 -0.0006706815871428331 0.001202673411151133 -0.000670681587142833 0.0011585647804643814 0.00021061126996978248 0.001202673411151133 0.00021061126996978254 0.0023236340059020573" id=2361 pbc="T T T"
Si       0.04967032      -0.01382500       0.06477065      -0.47884643       0.06613603      -2.41787500
Si       0.15230012       1.52521931       2.30291971       0.47884622      -0.06613617       2.41787352
2
Lattice="3.5543185834296427 0.0 0.0 1.8652132566209956 3.098798764976642 0.0 1.8126792775583642 1.2915824852410045 2.867000857359481" Properties=species:S:1:pos:R:3:dft_force:R:3 dft_energy=-229.31974039650996 volume=31.57748585417795 dft_virial="-0.03273143494767968 0.3591793181568848 0.37604525096567576 0.35917931815688486 -0.03223678578580562 0.26964555357316006 0.37604525096567576 0.26964555357316 -0.04015854048416629" id=327 pbc="T T T"
Si       0.00000000       0.00000000       0.00000000       2.36934907       0.93339232       4.25465620
Si       1.79778497       1.03795136       0.73394362      -2.36934902      -0.93339212      -4.25465608
2
Lattice="3.7196235175475154 0.0 0.0 2.100918162681025 3.2602577006273328 0.0 2.003108201663094 1.2878314867359617 3.0544227826626478" Properties=species:S:1:pos:R:3:dft_force:R:3 dft_energy=-230.06551883443672 volume=37.040774991517914 dft_virial="-0.010712396149143794 0.30933554546611686 0.31230915187518427 0.30933554546611675 -0.007979927588568669 0.20214372218913554 0.31230915187518404 0.20214372218913546 -0.008896049846522763" id=260 pbc="T T T"
Si       0.00000000       0.00000000       0.00000000      -3.26140563      -5.53814446      -4.08506915
Si       1.86282200       1.07549956       0.76049324       3.26140668       5.53814572       4.08506984
2
Lattice="3.6065635626074544 0.0 0.0 1.7792852908675063 3.1407297482650876 0.0 1.7681422953085366 1.1769815309151082 2.923771834733462" Properties=species:S:1:pos:R:3:dft_force:R:3 dft_energy=-229.67563551885215 volume=33.11826957547443 dft_virial="-0.025336483830351447 0.31429274513319283 0.33534937762405875 0.31429274513319283 -0.024432488641779913 0.22434495487983266 0.33534937762405875 0.22434495487983272 -0.029612104342446623" id=304 pbc="T T T"
Si       0.00000000       0.00000000       0.00000000       2.04155119       0.21212034       2.89588526
Si       1.81625977       1.04861833       0.74148608      -2.04155120      -0.21212019      -2.89588519
4
Lattice="3.7437747779220527 -0.0738608005628468 -0.018751842526470643 -0.05936841633877302 4.073244056612379 0.014993374024404761 -0.021337961495775343 0.041661833395715143 3.7918461187632646" Properties=species:S:1:pos:R:3:dft_force:R:3 dft_energy=-458.24789091643856 volume=57.8025051366231 dft_virial="-0.0043723721142068074 -0.001202529990715839 0.00039385228610823675 -0.0012025299907158394 -0.0030903237539394793 -0.0010820625848050286 0.00039385228610823675 -0.0010820625848050281 -0.0016701150526784044" id=2327 pbc="T T T"
Si       0.04967229      -0.01382414       0.06476853       4.58935766      -3.19834855      -0.28762323
Si       2.09138988       1.91566963      -0.02341349      -4.55622344       3.05952449      -1.16899024
Si       2.09700864       0.07674278       1.89213713      -6.52577179      -4.90881197       0.94384420
Si       0.05425779       1.89274295       1.89251140       6.49264218       5.04763231       0.51276549
2
Lattice="2.6239177142400414 -0.039310674332767394 0.032671636978749544 -1.270101623802182 2.334612499542365 0.01285278487753457 0.031876537295635776 0.06048047589556272 4.619965968716871" Properties=species:S:1:pos:R:3:dft_force:R:3 dft_energy=-229.25874912269757 volume=28.063466067028674 dft_virial="-0.0038681378239196576 6.984934220979171e-05 9.817705492721628e-05 6.984934220979169e-05 -0.0017892732148478711 0.0003188119731997255 9.817705492721626e-05 0.0003188119731997254 -0.0018414650468491366" id=2356 pbc="T T T"
Si       0.04967125      -0.01382593       0.06476889      -0.18335987       0.20507764      -2.37471713
Si       0.15230265       1.52521889       2.30292179       0.18335987      -0.20507760       2.37471788
2
Lattice="2.6596512999984543 0.03060432780267369 0.013710814535567651 -1.3836472685486711 2.2975775843025965 -0.0021932691258746352 -0.040386793903880946 0.0068518172692146155 4.712194511959271" Properties=species:S:1:pos:R:3:dft_force:R:3 dft_energy=-229.26425618480323 volume=28.9957927833461 dft_virial="-0.0005290169662516873 -0.0005407607038528861 0.00039103621430958574 -0.0005407607038528862 -0.00022381272808256626 8.333848096914542e-05 0.00039103621430958574 8.333848096914545e-05 0.00028347111799069885" id=2362 pbc="T T T"
Si       0.04967253      -0.01382690       0.06477089      -0.49884385       0.16317915      -2.45727423
Si       0.15230235       1.52521899       2.30291941       0.49884398      -0.16317905       2.45727270
2
Lattice="3.6167585585442485 0.0 0.0 1.9278922316403486 3.118876756974576 0.0 1.726639311849512 1.0186855940038062 2.9608158199696155" Properties=species:S:1:pos:R:3:dft_force:R:3 dft_energy=-229.7261572497725 volume=33.39866627551151 dft_virial="-0.025362683527080467 0.33897152180229656 0.3169597291797278 0.33897152180229667 -0.02621281814151801 0.18779623013559862 0.31695972917972787 0.18779623013559865 -0.023317047325714192" id=326 pbc="T T T"
Si       0.00000000       0.00000000       0.00000000      -1.50959848      -0.70771582      -2.00002399
Si       1.79778874       1.03795399       0.73394479       1.50959874       0.70771653       2.00002472
2
Lattice="2.7246639640877177 0.0023534490620350707 0.017623202976288888 -1.3672855050696366 2.323824603841871 -0.022260251128197666 -0.06434318435608387 0.23517944626945095 4.6404980905338125" Properties=species:S:1:pos:R:3:dft_force:R:3 dft_energy=-229.27619703656728 volume=29.408136658482313 dft_virial="0.0022997525965299417 0.00023540177433510286 -0.0007769030716528641 0.0002354017743351028 0.0012586854197871257 0.0004238030495541 -0.0007769030716528641 0.0004238030495541 0.00045337863649390836" id=2348 pbc="T T T"
Si       0.04967048      -0.01382596       0.06477104      -0.20659762       0.50213004      -1.39918707
Si       0.15230156       1.52521763       2.30292163       0.20659765      -0.50213016       1.39918669
2
Lattice="3.696803526642401 0.0 0.0 1.8033802812644704 3.304271683085601 0.0 1.9662612163484254 1.3277544708246936 2.979805812401172" Properties=species:S:1:pos:R:3:dft_force:R:3 dft_energy=-230.00345495287007 volume=36.39905272007786 dft_virial="-0.014143231473178327 0.2642411146108562 0.32111847815128597 0.2642411146108562 -0.005046604160165761 0.21713029749479434 0.32111847815128597 0.21713029749479434 -0.016395119597773327" id=282 pbc="T T T"
Si       0.00000000       0.00000000       0.00000000      -1.87684690      -7.58593107      -1.60467104
Si       1.83770328       1.06099922       0.75023763       1.87684694       7.58593132       1.60467139
2
Lattice="3.6444585475044438 0.0 0.0 1.7753572924330063 3.1231777552604174 0.0 2.007577199881979 1.0066345988067191 2.950413824115321" Properties=species:S:1:pos:R:3:dft_force:R:3 dft_energy=-229.7298150468206 volume=33.58247127018857 dft_virial="-0.019804580869008624 0.3102540191038973 0.37358098113057947 0.3102540191038973 -0.026072742788516127 0.18648987613854962 0.37358098113057947 0.1864898761385496 -0.02627427394147548" id=275 pbc="T T T"
Si       0.00000000       0.00000000       0.00000000       2.62153973       5.27697571       4.47161482
Si       1.84975095       1.06795347       0.75515842      -2.62153986      -5.27697590      -4.47161478
2
Lattice="2.6419727870442085 -0.05109281963700437 -0.09111743368523176 -1.2948410439423093 2.396376284926466 0.13440468643313752 0.04418946238833096 0.0754256799391656 4.593866179118917" Properties=species:S:1:pos:R:3:dft_force:R:3 dft_energy=-229.2531180983647 volume=28.77205044453998 dft_virial="-0.0022232527116492254 0.001137355418183317 -0.0005204741085567156 0.0011373554181833166 0.001953522867543998 0.0007796798283730962 -0.0005204741085567155 0.0007796798283730962 -0.0018471655373073761" id=2352 pbc="T T T"
Si       0.04967059      -0.01382490       0.06476794      -0.08237304       0.35485595      -3.11554068
Si       0.15230350       1.52521721       2.30291927       0.08237333      -0.35485616       3.11554265
2
Lattice="2.6228157646792227 -0.041659153396783256 -0.010747585716559734 -1.3516423213042128 2.3506148131646576 0.01789555286774409 0.07925392841342073 -0.0790841784810744 4.651007496345298" Properties=species:S:1:pos:R:3:dft_force:R:3 dft_energy=-229.26086425324277 volume=28.4171450729355 dft_virial="-0.0027482093117788082 -0.0006106673471687808 0.00015607631611265496 -0.0006106673471687806 -0.0019738431621675137 -9.344694577503933e-05 0.00015607631611265496 -9.344694577503935e-05 -0.00038786674850304335" id=2328 pbc="T T T"
Si       0.04967139      -0.01382562       0.06476799      -0.24516811      -0.00402635      -2.36756868
Si       0.15230207       1.52521841       2.30292138       0.24516785       0.00402637       2.36757265
2
Lattice="3.771630496820182 0.0 0.0 1.5778473711504013 3.263724699245564 0.0 2.0016052022621134 0.930383629196472 3.027200793511946" Properties=species:S:1:pos:R:3:dft_force:R:3 dft_energy=-230.0651322001115 volume=37.26352072464741 dft_virial="-0.007479696381203257 0.22110866572086793 0.31232489355666715 0.22110866572086793 -0.007292683637225152 0.14065641545719096 0.31232489355666715 0.140656415457191 -0.011390902753521157" id=268 pbc="T T T"
Si       0.00000000       0.00000000       0.00000000      -0.75932645      -0.94875827       1.06193522
Si       1.86282383       1.07550106       0.76049339       0.75932645       0.94875830      -1.06193531
4
Lattice="3.922697576612538 0.017421393056720042 0.10893056658582424 0.11010593611738183 3.8894185098758793 -0.018266682719830632 -0.07752710910164295 0.14574144191488422 3.907063792843368" Properties=species:S:1:pos:R:3:dft_force:R:3 dft_energy=-458.3778148973648 volume=59.647689001659856 dft_virial="0.0005758701335810177 4.838154820905546e-05 0.001682702473365476 4.838154820905546e-05 0.00013929170852247278 0.0001511871187563681 0.001682702473365476 0.00015118711875636805 0.000909464434518688" id=2293 pbc="T T T"
Si       0.04967129      -0.01382526       0.06476736       1.51499302      -1.39526191      -0.89461277
Si       2.09138946       1.91567076      -0.02341409      -1.61999829       2.11539906      -1.96781760
Si       2.09700531       0.07674465       1.89213795      -0.98840647      -1.19064832       1.24503764
Si       0.05425444       1.89274596       1.89251236       1.09341553       0.47050791       1.61739060
2
Lattice="3.7937274880134466 0.0 0.0 1.5717313735879264 3.194476726844279 0.0 1.9658862164978812 1.0027196003670382 3.088416769114376" Properties=species:S:1:pos:R:3:dft_force:R:3 dft_energy=-230.07927904646672 volume=37.428443046299854 dft_virial="-0.005568942623931104 0.22419855117025042 0.29841601397441214 0.22419855117025042 -0.013199433226963042 0.15099400093810164 0.2984160139744121 0.1509940009381016 -0.00599990968086975" id=255 pbc="T T T"
Si       0.00000000       0.00000000       0.00000000      -0.29301758       3.09176706      -0.60301278
Si       1.87711425       1.08375159       0.76632885       0.29301792      -3.09176711       0.60301277
4
Lattice="3.845895507221931 0.0030564787818432313 -0.03297874685635119 0.022876320882663642 3.8692720979052124 0.08690082536575706 0.0953725319893663 0.1544113884594851 3.82016339747744" Properties=species:S:1:pos:R:3:dft_force:R:3 dft_energy=-458.35590010983714 volume=56.80735484691924 dft_virial="-0.001830885113276692 0.00016970431592577495 0.0009256405652508066 0.00016970431592577498 -0.004023072181766272 0.0001612201097186954 0.0009256405652508062 0.00016122010971869534 -0.0038640456643198244" id=2307 pbc="T T T"
Si       0.04967034      -0.01382610       0.06477038       2.67145837      -1.23614044      -0.57106487
Si       2.09139012       1.91567194      -0.02341570      -2.45622723       1.49071801      -1.33733150
Si       2.09700898       0.07674346       1.89213710      -2.95699597      -1.17142399       1.17114168
Si       0.05425669       1.89274610       1.89251196       2.74176330       0.91684594       0.73725475
2
Lattice="3.672571536300038 0.0 0.0 1.743642305072985 3.137749749452763 0.0 1.7322933095961166 1.2833864885075117 2.961371819748022" Properties=species:S:1:pos:R:3:dft_force:R:3 dft_energy=-229.80457056652577 volume=34.125695153243214 dft_virial="-0.018063745555119595 0.2927332772386199 0.30917444775824976 0.2927332772386199 -0.022366109296092205 0.23429267533897938 0.3091744477582498 0.23429267533897938 -0.02242883915476181" id=293 pbc="T T T"
Si       0.00000000       0.00000000       0.00000000       0.14501818       1.04483716       0.75193950
Si       1.82656022       1.05456319       0.74568823      -0.14501866      -1.04483776      -0.75193999
4
Lattice="3.8796244437792953 0.029043508424736797 0.06693863332167009 0.07973998821970203 3.878570774199234 0.07199287130730825 -0.013417004652665305 0.12511321013624674 3.8221094467018437" Properties=species:S:1:pos:R:3:dft_force:R:3 dft_energy=-458.3736698092336 volume=57.473128627295786 dft_virial="-0.0016353185471709546 -0.00021434644018250213 0.0018561829852185574 -0.00021434644018250213 -0.002875900728975095 -0.00045062905407374144 0.001856182985218558 -0.0004506290540737416 -0.0015538861831061266" id=2300 pbc="T T T"
Si       0.04967277      -0.01382780       0.06476785       2.28958671      -1.46202973      -0.43569879
Si       2.09138818       1.91567237      -0.02341228      -2.25149048       1.83088044      -1.49697725
Si       2.09700727       0.07674473       1.89213900      -2.17958542      -0.91427692       1.22752493
Si       0.05425514       1.89274487       1.89251394       2.14149340       0.54542419       0.70515192
4
Lattice="3.807907622361967 -0.05795785690095017 0.14732718128288924 0.06306342486613081 3.955642333482436 0.033738056553729016 -0.14991514025146063 -0.0342859763353561 3.945891517368615" Properties=species:S:1:pos:R:3:dft_force:R:3 dft_energy=-458.30927665455533 volume=59.54202968370009 dft_virial="-0.0010136814745148135 -0.000844402304258471 0.0018411711396781982 -0.0008444023042584706 -0.00030834187834436687 -0.0006353412446861391 0.0018411711396781982 -0.0006353412446861394 -0.0004483276035793957" id=2320 pbc="T T T"
Si       0.04967270      -0.01382556       0.06476954       3.78167644      -2.41654706      -2.87585185
Si       2.09138975       1.91567117      -0.02341227      -2.92547685       1.58976995      -2.23292257
Si       2.09700843       0.07674186       1.89213798      -4.32877618      -2.02285922       3.32321848
Si       0.05425724       1.89274486       1.89251431       3.47257662       2.84963111       1.78555817
2
Lattice="3.6044385634543707 0.0 0.0 1.9344012290461936 3.1049197625371234 0.0 2.1802501310633433 0.9679336142309605 3.080941772093529" Properties=species:S:1:pos:R:3:dft_force:R:3 dft_energy=-229.71745699815543 volume=34.48033682319114 dft_virial="-0.022149089916033985 0.33072710002912914 0.37796986926874426 0.33072710002912903 -0.02756759818951578 0.16419525661480197 0.3779698692687441 0.164195256614802 -0.009626595415952916" id=287 pbc="T T T"
Si       0.00000000       0.00000000       0.00000000       1.27157295       4.42393397      -6.11979721
Si       1.83770561       1.06099850       0.75024013      -1.27157287      -4.42393392       6.11979746
2
Lattice="3.6319285524982616 0.0 0.0 1.8501322626315118 3.249814704789379 0.0 2.18405212954806 1.2433815044514607 2.888529848779122" Properties=species:S:1:pos:R:3:dft_force:R:3 dft_energy=-229.6897999409357 volume=34.09359168587306 dft_virial="-0.020360971704031908 0.30494734804778223 0.40491962441218693 0.3049473480477822 -0.011254363554902102 0.22690599248380244 0.4049196244121868 0.22690599248380244 -0.02993494986592937" id=297 pbc="T T T"
Si       0.00000000       0.00000000       0.00000000      -0.33539562      -5.74624602       2.58058573
Si       1.82655867       1.05456258       0.74568842       0.33539692       5.74624716      -2.58058402
2
Lattice="3.6368755505266406 0.0 0.0 1.3283264705967235 3.1134307591450736 0.0 1.582265369389612 0.9112976368031765 2.9069868414231053" Properties=species:S:1:pos:R:3:dft_force:R:3 dft_energy=-229.50430106876132 volume=32.91627772272679 dft_virial="-0.02172211839239566 0.22943561141571958 0.2986137425649736 0.22943561141571958 -0.023911843323025542 0.17042321727923385 0.2986137425649736 0.17042321727923385 -0.028094692496565887" id=311 pbc="T T T"
Si       0.00000000       0.00000000       0.00000000       0.68637355      -1.67073365       2.36496611
Si       1.80670687       1.04310172       0.73758396      -0.68637350       1.67073368      -2.36496608
2
Lattice="3.946743427029087 0.0 0.0 1.9208362344525096 3.2371517098362044 0.0 1.904346241024581 1.2559434994448893 3.291208688291846" Properties=species:S:1:pos:R:3:dft_force:R:3 dft_energy=-230.122761275968 volume=42.049164248969554 dft_virial="0.002964124125507777 0.2348872545132869 0.22955463109117505 0.23488725451328696 -0.0070287557939513155 0.15699031401697852 0.22955463109117505 0.1569903140169785 0.0072596284726640856" id=235 pbc="T T T"
Si       0.00000000       0.00000000       0.00000000      -4.31388028       1.18647962      -6.38651912
Si       1.91066960       1.10312723       0.78002633       4.31388659      -1.18648879       6.38653097
2
Lattice="3.674871535383376 0.0 0.0 2.002647201846825 3.124712754648645 0.0 1.3682774546742964 1.2013705211948988 3.02082179605429" Properties=species:S:1:pos:R:3:dft_force:R:3 dft_energy=-229.7603839377479 volume=34.68784885075905 dft_virial="-0.014375649823921026 0.33218526508349805 0.22845656178367693 0.33218526508349805 -0.023966273913510028 0.20676514060576087 0.22845656178367693 0.20676514060576084 -0.012833633514196927" id=271 pbc="T T T"
Si       0.00000000       0.00000000       0.00000000       3.26277348       4.79584177      -1.69009489
Si       1.84974926       1.06795284       0.75515712      -3.26277376      -4.79584176       1.69009454
4
Lattice="3.890223059555227 0.05869450660735912 0.07772742902180563 0.06449979429366712 3.873196306341223 0.031604327404124784 -0.04176891335303853 0.023313110708581462 3.8446238277287583" Properties=species:S:1:pos:R:3:dft_force:R:3 dft_energy=-458.37410824443606 volume=57.924437568924 dft_virial="-0.002076204976460368 8.33874724788708e-05 0.0012382033178237211 8.33874724788708e-05 -0.001633689239500101 0.0003197725275393465 0.0012382033178237211 0.0003197725275393465 -0.000773339242184497" id=2315 pbc="T T T"
Si       0.04967228      -0.01382662       0.06476752       2.44608702      -1.57900236      -0.84435231
Si       2.09139066       1.91567132      -0.02341373      -2.07309427       1.65581291      -1.47467279
Si       2.09700716       0.07674147       1.89213851      -2.25068767      -1.02620949       1.25106875
Si       0.05425615       1.89274300       1.89251502       1.87769559       0.94939661       1.06795545
2
Lattice="2.666737747174157 0.10865056669741795 -0.02319002075763885 -1.2644592660509384 2.332955510202756 -0.10758515712203594 -0.1609499158535611 0.09068582385724944 4.751284096380154" Properties=species:S:1:pos:R:3:dft_force:R:3 dft_energy=-229.25504282133923 volume=30.234148600939506 dft_virial="0.0025679441155315084 0.0005785204210568685 -0.0003366218992506881 0.0005785204210568687 0.0022273786903780875 0.000419913133025818 -0.000336621899250688 0.00041991313302581785 0.0045884306495257345" id=2351 pbc="T T T"
Si       0.04967152      -0.01382709       0.06476852      -0.23958698       0.23267867      -0.62408056
Si       0.15230257       1.52521902       2.30291946       0.23958694      -0.23267863       0.62408034
2
Lattice="3.7493595056962645 0.0 0.0 1.9613072183228368 3.144992746566073 0.0 1.8372122677807636 1.0066245988107048 3.0375747893773997" Properties=species:S:1:pos:R:3:dft_force:R:3 dft_energy=-230.0197703874163 volume=35.818196310446496 dft_virial="-0.010962411609526237 0.30984816966504364 0.29883213404596953 0.30984816966504364 -0.019725205007392315 0.16619186313121181 0.29883213404596953 0.16619186313121181 -0.012515944631839757" id=276 pbc="T T T"
Si       0.00000000       0.00000000       0.00000000      -2.99028005       3.26360112      -1.37044541
Si       1.84974989       1.06795316       0.75515628       2.99028030      -3.26360091       1.37044601
2
Lattice="2.693837046373757 0.08787385497795702 -0.027600358999902656 -1.321257593414018 2.250920402897772 0.10214231929127388 0.07200844130110286 -0.07354212068985637 4.5628218914915895" Properties=species:S:1:pos:R:3:dft_force:R:3 dft_energy=-229.24995273614542 volume=28.219620476100932 dft_virial="-0.0010577497002480628 0.0016498912388263226 0.0004364367140176994 0.0016498912388263221 -0.003162857400153774 0.0009737214692581855 0.0004364367140176993 0.0009737214692581856 -0.002187763941564438" id=2368 pbc="T T T"
Si       0.04967173      -0.01382588       0.06477067      -0.12200331       0.05123466      -3.37445194
Si       0.15230210       1.52521876       2.30292195       0.12200352      -0.05123477       3.37445090
2
Lattice="3.8343884718080496 0.0 0.0 2.201891122438346 3.2898396888374593 0.0 1.8473812637279199 1.2447975038871153 3.0173027974567836" Properties=species:S:1:pos:R:3:dft_force:R:3 dft_energy=-230.08852714687012 volume=38.061836673930486 dft_virial="-0.0027778443911877873 0.307772783446578 0.27708401851547915 0.3077727834465778 -0.0044687703831507225 0.18976809916090065 0.27708401851547904 0.18976809916090068 -0.011798447183771401" id=259 pbc="T T T"
Si       0.00000000       0.00000000       0.00000000      -6.07565316      -5.79677148      -0.12830282
Si       1.87711450       1.08375303       0.76632853       6.07565332       5.79677140       0.12830278
2
Lattice="3.705648523117236 0.0 0.0 1.8078392794873406 3.1774087336467116 0.0 2.0728931738503578 1.0955525633685472 2.8933108468736592" Properties=species:S:1:pos:R:3:dft_force:R:3 dft_energy=-229.7514471134205 volume=34.06688344853669 dft_virial="-0.01504587838067213 0.3023245377890387 0.38352426633028486 0.3023245377890386 -0.017852061310078236 0.20234003576549797 0.38352426633028464 0.20234003576549794 -0.03231278039293911" id=281 pbc="T T T"
Si       0.00000000       0.00000000       0.00000000      -2.03309719      -0.39091201       6.26990528
Si       1.83770308       1.06099880       0.75023839       2.03309710       0.39091184      -6.26990544
2
Lattice="3.581542572579547 0.0 0.0 1.5146123963526414 3.10851476110434 0.0 1.575013372279889 0.7739116915582169 2.9449548262909997" Properties=species:S:1:pos:R:3:dft_force:R:3 dft_energy=-229.5281359507863 volume=32.787000644211574 dft_virial="-0.02764580251077297 0.2692335116516706 0.2960743493458346 0.2692335116516705 -0.02708703834946259 0.14293561638999927 0.29607434934583443 0.14293561638999927 -0.023535257466147305" id=312 pbc="T T T"
Si       0.00000000       0.00000000       0.00000000       3.44001865       1.05143483      -0.88619801
Si       1.80670755       1.04310270       0.73758455      -3.44001854      -1.05143447       0.88619828
4
Lattice="3.8422229086856423 0.031562557420772165 -0.007454947028837812 -0.0030471687855537217 3.9397663998097747 -0.12207211134827384 0.07392045053907335 -0.01790533286384628 3.7587241319640015" Properties=species:S:1:pos:R:3:dft_force:R:3 dft_energy=-458.3423387077555 volume=56.891388167863916 dft_virial="-0.002022354779899121 -0.0008452084997875974 0.0009946711269746822 -0.0008452084997875978 -0.004373163337796902 0.0003296976723608198 0.0009946711269746822 0.0003296976723608198 -0.0024009669968216903" id=2326 pbc="T T T"
Si       0.04967070      -0.01382465       0.06476931       3.09165613      -2.42521470      -0.65984963
Si       2.09139050       1.91566963      -0.02341468      -3.10471759       2.36593621       0.85690997
Si       2.09700611       0.07674435       1.89213821      -3.19465424      -2.34236939      -0.06292881
Si       0.05425510       1.89274490       1.89251371       3.20771477       2.40164938      -0.13413129
2
Lattice="3.70478952345959 0.0 0.0 1.8701682546461857 3.260707700447986 0.0 2.0107131986321294 1.046679582846828 3.0069578015797718" Properties=species:S:1:pos:R:3:dft_force:R:3 dft_energy=-230.07246382600832 volume=36.3247590662812 dft_virial="-0.013431417427017497 0.27984249489086055 0.3280689198672306 0.27984249489086055 -0.008696710730542194 0.16772395995799094 0.3280689198672306 0.16772395995799094 -0.014918887905029815" id=274 pbc="T T T"
Si       0.00000000       0.00000000       0.00000000      -1.79454887      -3.59517572      -0.50296396
Si       1.84975315       1.06795478       0.75515836       1.79454511       3.59517783       0.50296272
2
Lattice="3.6279405540876746 0.0 0.0 2.1976651241226137 3.177575733580154 0.0 1.508975398599262 1.264349496094687 2.9814528117447616" Properties=species:S:1:pos:R:3:dft_force:R:3 dft_energy=-229.7392579359855 volume=34.37035458022882 dft_virial="-0.0182805710396938 0.36746514502075045 0.2624837428019807 0.36746514502075045 -0.018822227338803645 0.22117634956612622 0.26248374280198067 0.22117634956612617 -0.017135878628288824" id=269 pbc="T T T"
Si       0.00000000       0.00000000       0.00000000       3.82397261      -0.19546496      -0.14145031
Si       1.84975006       1.06795293       0.75515728      -3.82397255       0.19546525       0.14145029
2
Lattice="3.7554995032491743 0.0 0.0 1.688265327143428 3.207618721606549 0.0 1.7775682915518147 1.3406924656682677 3.0798467725299408" Properties=species:S:1:pos:R:3:dft_force:R:3 dft_energy=-230.06817835269862 volume=37.10048257770582 dft_virial="-0.008702989000697181 0.24491580239615704 0.2711986189608093 0.24491580239615704 -0.011977219729506244 0.21024058765437753 0.2711986189608093 0.21024058765437756 -0.0070527923298098925" id=261 pbc="T T T"
Si       0.00000000       0.00000000       0.00000000       1.05745636      -0.23867417      -2.31414031
Si       1.86282531       1.07550164       0.76049425      -1.05745621       0.23867419       2.31414046
2
Lattice="3.870109457571484 0.0 0.0 2.1292561513869463 3.3321086719911954 0.0 1.5437503847397236 1.2321775089168028 3.206277722141003" Properties=species:S:1:pos:R:3:dft_force:R:3 dft_energy=-230.10210641903666 volume=41.34695606478759 dft_virial="0.000511213878279396 0.2603686293128456 0.18882756886566437 0.26036862931284566 -0.0007496041546699339 0.15619338114580586 0.1888275688656644 0.15619338114580583 0.0037592825749266133" id=246 pbc="T T T"
Si       0.00000000       0.00000000       0.00000000      -2.08950066      -3.76810799      -5.31784430
Si       1.89292364       1.09287936       0.77278347       2.08950087       3.76810798       5.31784471
2
Lattice="2.703437602547464 0.11827069286332563 0.01190466525540676 -1.2922226449858696 2.2068235604725275 0.06943782232562065 -0.05794974690418239 0.026569839410615272 4.696856458072238" Properties=species:S:1:pos:R:3:dft_force:R:3 dft_energy=-229.21691775521356 volume=28.734971988751987 dft_virial="-0.0008256930622809308 0.00043767938210322803 0.0003589923359693868 0.00043767938210322814 -0.00391784948688581 0.00029507161519767757 0.0003589923359693868 0.00029507161519767757 -0.0006086674501746323" id=2349 pbc="T T T"
Si       0.04967014      -0.01382622       0.06476684      -0.10065780       0.16611002      -4.13581889
Si       0.15230039       1.52521889       2.30292054       0.10065811      -0.16611019       4.13581775
4
Lattice="4.003560444384718 0.04175574335828742 -0.00021367991483806916 -0.028952548460988804 3.9869662609983143 0.03581396572637736 -0.03735192511342507 -0.0013241394722654479 3.911529331063632" Properties=species:S:1:pos:R:3:dft_force:R:3 dft_energy=-458.3248362094891 volume=62.44089845785398 dft_virial="0.004338297393695879 0.00017912598383871588 -1.876843419174558e-05 0.00017912598383871574 0.0036129405098095993 0.00020267157382338944 -1.8768434191745577e-05 0.0002026715738233895 0.002798977951084032" id=2291 pbc="T T T"
Si       0.04967295      -0.01382767       0.06476870       0.14469969      -1.74062328      -0.55035260
Si       2.09138905       1.91567083      -0.02341386      -0.48343101       1.31266399      -1.71832982
Si       2.09700691       0.07674241       1.89213650      -0.22240014      -0.93830613       1.22732700
Si       0.05425590       1.89274241       1.89251477       0.56113012       1.36625753       1.04136329
2
Lattice="3.619002557649905 0.0 0.0 1.7354693083303252 3.1393247488250484 0.0 2.3982040441980144 0.9024016403486675 2.8371888692410216" Properties=species:S:1:pos:R:3:dft_force:R:3 dft_energy=-229.31566222267182 volume=32.23393911155169 dft_virial="-0.023946624597734213 0.31449742268168707 0.48682445114487644 0.31449742268168707 -0.023571648383546837 0.17696732094487905 0.48682445114487644 0.17696732094487896 -0.033100496246712324" id=323 pbc="T T T"
Si       0.00000000       0.00000000       0.00000000      -0.06493653      -1.91877020       1.69082045
Si       1.79778740       1.03795119       0.73394388       0.06493656       1.91877024      -1.69082031
2
Lattice="2.6581767305861423 -0.012087395182579919 0.04830790074693119 -1.318223284623339 2.2953012352098328 0.043744212565784875 -0.03183461731234295 -0.04547974187409128 4.632937603547037" Properties=species:S:1:pos:R:3:dft_force:R:3 dft_energy=-229.25214970868223 volume=28.204928419685316 dft_virial="-0.002456149380083574 0.00035676851356524506 0.00018619547278495076 0.00035676851356524506 -0.0027582119523294397 5.40426338301127e-05 0.0001861954727849507 5.4042633830112705e-05 -0.002432978318422723" id=2340 pbc="T T T"
Si       0.04967013      -0.01382512       0.06476755      -0.32516014       0.15779564      -3.78696947
Si       0.15230222       1.52521896       2.30292184       0.32515998      -0.15779524       3.78697023
2
Lattice="2.6955824556781254 -0.038891464499843084 -0.02165519136934367 -1.343958404366631 2.382642680399981 0.048171530801281316 -0.01732416309547095 -0.0803989779570623 4.808226473685822" Properties=species:S:1:pos:R:3:dft_force:R:3 dft_energy=-229.22588801747 volume=30.637282186764 dft_virial="0.0035594327121238824 -0.0005490269396353241 0.0002992930380689016 -0.0005490269396353244 0.003618972205203818 -0.0001654848660219761 0.0002992930380689016 -0.00016548486602197598 0.0017556846262797717" id=2364 pbc="T T T"
Si       0.04967126      -0.01382532       0.06476731      -0.33150457       0.09667260      -3.12211040
Si       0.15230093       1.52521903       2.30292153       0.33150425      -0.09667259       3.12211906
2
Lattice="3.8542664638856943 0.0 0.0 1.8567142600082627 3.324966674837632 0.0 1.8315632700321665 1.110080557578429 3.2430537074839685" Properties=species:S:1:pos:R:3:dft_force:R:3 dft_energy=-230.2375987567086 volume=41.56073065726984 dft_virial="-0.00046586797799190476 0.2250887581002108 0.2275036601094613 0.2250887581002108 -0.001538279903453289 0.138710845811947 0.2275036601094613 0.138710845811947 0.0052670720403067955" id=230 pbc="T T T"
Si       0.00000000       0.00000000       0.00000000       2.34073730       1.79288828      -1.93606147
Si       1.93079623       1.11474563       0.78824367      -2.34073913      -1.79288859       1.93605863
2
Lattice="3.6615685406852725 0.0 0.0 1.8424472656943602 3.160959740202443 0.0 1.922032233975845 0.9926116043955706 3.1804867324199777" Properties=species:S:1:pos:R:3:dft_force:R:3 dft_energy=-230.0021670980271 volume=36.811178438513295 dft_virial="-0.015330057033380376 0.2818078520156562 0.2924909501502552 0.2818078520156562 -0.019305472347077645 0.14968683024585178 0.2924909501502552 0.14968683024585178 -0.0007753987509870728" id=253 pbc="T T T"
Si       0.00000000       0.00000000       0.00000000       4.44256500       6.28387024      -4.11077285
Si       1.87711258       1.08375311       0.76632873      -4.44256473      -6.28387005       4.11077286
2
Lattice="3.6548905433467813 0.0 0.0 1.8211822741695025 3.1068217617790834 0.0 1.8937422452507937 1.123120552381351 3.0114697997815187" Properties=species:S:1:pos:R:3:dft_force:R:3 dft_energy=-229.82580969282913 volume=34.19552107965259 dft_virial="-0.02147133336510698 0.30880168399840346 0.33293169167806586 0.30880168399840346 -0.026296020938601176 0.20011844983612903 0.33293169167806586 0.20011844983612906 -0.01608929243829157" id=319 pbc="T T T"
Si       0.00000000       0.00000000       0.00000000      -4.34423028      -0.78700588      -5.94214461
Si       1.79778878       1.03795400       0.73394338       4.34422908       0.78700501       5.94214332
2
Lattice="3.6482515459927476 0.0 0.0 1.5994643625349694 3.23510171065323 0.0 1.7653842964077346 1.2295825099510371 2.9599958202964256" Properties=species:S:1:pos:R:3:dft_force:R:3 dft_energy=-229.8808726725273 volume=34.935246528505544 dft_virial="-0.01843736719397221 0.2514075579545588 0.3060465534117151 0.2514075579545587 -0.012437166024075614 0.21291957142877865 0.30604655341171505 0.21291957142877865 -0.020991725744473923" id=283 pbc="T T T"
Si       0.00000000       0.00000000       0.00000000       3.90122467      -2.96085728       2.79545510
Si       1.83770464       1.06099860       0.75023758      -3.90122468       2.96085743      -2.79545514
4
Lattice="3.786629310842419 -0.06016597602090635 0.030647597785428474 0.13248392719865434 3.93460273186775 0.0973918411845725 -0.09665942147647769 -0.07331497078038676 3.812534010518125" Properties=species:S:1:pos:R:3:dft_force:R:3 dft_energy=-458.3190836589405 volume=56.871846354316894 dft_virial="-0.00267883330578075 -0.001050325055380135 0.0007602043482397496 -0.0010503250553801353 -0.005025017960079117 -0.000989245831455423 0.0007602043482397501 -0.000989245831455423 -0.003314688163289306" id=2279 pbc="T T T"
Si       0.04967157      -0.01382514       0.06476890       4.22935837      -2.41222619      -0.62527878
Si       2.09139083       1.91567113      -0.02341230      -3.96493050       2.24916569      -1.38784580
Si       2.09700603       0.07674361       1.89213982      -4.42843823      -2.59849019       1.45164684
Si       0.05425715       1.89274308       1.89251180       4.16400657       2.76154712       0.56147875
4
Lattice="3.9135334802648805 -0.12464573032256039 -0.023414520668164615 0.19879518077036604 3.922735446597445 -0.13056026796532694 -0.08178691740390032 -0.09507660210730888 3.835544371347367" Properties=species:S:1:pos:R:3:dft_force:R:3 dft_energy=-458.38000530694234 volume=58.92040403980955 dft_virial="7.455122771871612e-05 -0.0003070799961902068 -0.0004320225499659828 -0.00030707999619020686 -0.0009647637746059051 7.764604940954282e-05 -0.0004320225499659829 7.76460494095428e-05 0.0002863096845436615" id=2290 pbc="T T T"
Si       0.04967189      -0.01382711       0.06476828       1.48207725      -2.59985871      -0.99974503
Si       2.09138947       1.91567150      -0.02341258      -1.70587590       1.80430371      -0.16570611
Si       2.09700898       0.07674167       1.89213675      -1.30393646      -1.48560559       0.50141738
Si       0.05425516       1.89274405       1.89251171       1.52772337       2.28115849       0.66404512
4
Lattice="3.7823570525451236 -0.010066835987871904 0.08871799464152595 -0.08236224717460316 3.7927126284179185 -0.028037638825625186 0.048439160694617664 -0.0307158377582315 3.77146921688446" Properties=species:S:1:pos:R:3:dft_force:R:3 dft_energy=-458.18215038342095 volume=54.08076427730002 dft_virial="-0.009658861259820035 -0.0010657779971202542 0.0018266623295415682 -0.0010657779971202542 -0.00812009350045157 -0.0008670991041033058 0.0018266623295415682 -0.0008670991041033058 -0.007965391284336577" id=2308 pbc="T T T"
Si       0.04967146      -0.01382638       0.06477082       5.71459842      -0.02478103      -1.08995432
Si       2.09138752       1.91567196      -0.02341357      -5.95343988       0.08980829       0.65194790
Si       2.09700542       0.07674359       1.89213840      -5.88047236      -1.22670329       1.26317135
Si       0.05425582       1.89274348       1.89251287       6.11931452       1.16167716      -0.82516437
2
Lattice="3.5970975663801186 0.0 0.0 2.0104201987489043 3.1246987546542244 0.0 1.8720832538829646 1.0309745891060387 2.931807831530722" Properties=species:S:1:pos:R:3:dft_force:R:3 dft_energy=-229.6373705776685 volume=32.953069366606826 dft_virial="-0.026710683320991895 0.36252507802349915 0.35726911896691754 0.36252507802349915 -0.026312353539796007 0.19570596850843727 0.35726911896691754 0.1957059685084373 -0.028122734261007535" id=315 pbc="T T T"
Si       0.00000000       0.00000000       0.00000000      -0.30498793      -1.01900434       0.54069312
Si       1.80670817       1.04310328       0.73758422       0.30498522       1.01900212      -0.54069611
4
Lattice="3.936269141203604 -0.09301564292870224 -0.012465435031912489 -0.014511284216541204 3.9738323162328353 0.04812892081826348 0.08565766586121713 0.04899786047194839 3.8520811247566598" Properties=species:S:1:pos:R:3:dft_force:R:3 dft_energy=-458.3702357658241 volume=60.24392263492146 dft_virial="0.0013238003319001564 0.00023237375923242375 0.00042853227186059493 0.0002323737592324237 0.0003402615476705378 -3.1804785977748864e-05 0.00042853227186059493 -3.180478597774887e-05 0.0023957430548773922" id=2301 pbc="T T T"
Si       0.04967262      -0.01382555       0.06476851       1.47471795      -2.11301306      -0.28858263
Si       2.09138743       1.91567183      -0.02341389      -0.99831550       2.30486095      -1.54707712
Si       2.09700810       0.07674379       1.89213658      -2.27664581      -1.81736559       1.23668893
Si       0.05425494       1.89274236       1.89251464       1.80024753       1.62551811       0.59897578
2
Lattice="2.666299177348949 -0.03879625453778893 -0.05021068998857632 -1.338425226571874 2.3579028802600055 0.03119006756922765 -0.0024838590100603073 -0.03448683625530357 4.680627714540188" Properties=species:S:1:pos:R:3:dft_force:R:3 dft_energy=-229.26519743929515 volume=29.183732634047118 dft_virial="0.00030252805194636034 -0.0005933939735549398 0.0004658966125647523 -0.00059339397355494 0.0004141186137521602 0.00020651020153011698 0.0004658966125647523 0.00020651020153011698 0.0009525255606265352" id=2367 pbc="T T T"
Si       0.04967207      -0.01382579       0.06477105      -0.40233134       0.12803285      -2.05204089
Si       0.15230322       1.52521847       2.30291974       0.40233170      -0.12803287       2.05204185
2
Lattice="3.7033415240366883 0.0 0.0 2.152429142151372 3.264416698969768 0.0 1.83597626827337 1.161673537016095 3.027422793423468" Properties=species:S:1:pos:R:3:dft_force:R:3 dft_energy=-230.03543048035948 volume=36.59927074217089 dft_virial="-0.0130932409507179 0.32107002234763277 0.29067705924281184 0.32107002234763254 -0.008253947484589224 0.18394827719551232 0.29067705924281184 0.18394827719551243 -0.011343664970575455" id=285 pbc="T T T"
Si       0.00000000       0.00000000       0.00000000      -4.21981915      -7.34717656      -3.84148041
Si       1.83770379       1.06099730       0.75023775       4.21981890       7.34717656       3.84148065
2
Lattice="3.6830575321208547 0.0 0.0 1.7164693159027544 3.2273947137248458 0.0 1.8433412653380574 1.0622425766442114 2.90100184380842" Properties=species:S:1:pos:R:3:dft_force:R:3 dft_energy=-229.8212488890313 volume=34.48328178475378 dft_virial="-0.016750479313914032 0.2766612819713309 0.3330718474612458 0.27666128197133094 -0.012904753122073115 0.1903186274527599 0.3330718474612459 0.19031862745275993 -0.03149777342138681" id=280 pbc="T T T"
Si       0.00000000       0.00000000       0.00000000       0.45925622      -2.14146296       7.60501327
Si       1.83770305       1.06099775       0.75023969      -0.45925764       2.14146206      -7.60501333
2
Lattice="3.5269455943391215 0.0 0.0 1.6988923229080488 3.103146763243751 0.0 1.4260354316549084 1.1528345405388687 2.937584829228305" Properties=species:S:1:pos:R:3:dft_force:R:3 dft_energy=-229.4081073392999 volume=32.15077847730558 dft_virial="-0.03254966679523557 0.31701900448525105 0.279093188246748 0.31701900448525105 -0.030906685806737756 0.22482325522833785 0.279093188246748 0.22482325522833785 -0.027049039636672385" id=303 pbc="T T T"
Si       0.00000000       0.00000000       0.00000000       8.25346108       2.44922453      -0.85905784
Si       1.81625924       1.04861750       0.74148460      -8.25346114      -2.44922475       0.85905787
2
Lattice="3.706656522715499 0.0 0.0 1.9362592283056899 3.159368740836534 0.0 1.8306912703797011 1.0948075636654662 2.990440808162604" Properties=species:S:1:pos:R:3:dft_force:R:3 dft_energy=-229.9599892158341 volume=35.02013947498268 dft_virial="-0.014220316283567003 0.31525143761403535 0.31330895324886315 0.31525143761403535 -0.019480498109561983 0.18969210364337288 0.3133089532488631 0.18969210364337274 -0.018886593087822933" id=273 pbc="T T T"
Si       0.00000000       0.00000000       0.00000000      -0.83343880       2.08001209       1.60682962
Si       1.84974890       1.06795340       0.75515808       0.83343860      -2.08001217      -1.60682980
2
Lattice="3.759797501536211 0.0 0.0 2.0326601898851764 3.346140666398757 0.0 1.9597042189617107 1.095844563252171 3.2987136853007364" Properties=species:S:1:pos:R:3:dft_force:R:3 dft_energy=-230.159749299922 volume=41.500494464612615 dft_virial="-0.005921782121643195 0.25027370851325714 0.24282888060760063 0.25027370851325714 -0.0009708997301690361 0.13382693859526976 0.24282888060760063 0.13382693859526978 0.0077379805474051535" id=239 pbc="T T T"
Si       0.00000000       0.00000000       0.00000000       0.66887773      -2.20345131      -6.24797145
Si       1.91067024       1.10312485       0.78002703      -0.66887680       2.20345140       6.24797076
2
Lattice="3.693276528048083 0.0 0.0 1.9014672421720034 3.2831346915097295 0.0 1.3434094645854104 1.440628425838884 2.9246648343775576" Properties=species:S:1:pos:R:3:dft_force:R:3 dft_energy=-229.79030367100657 volume=35.463094502729184 dft_virial="-0.012145272269985855 0.28743768422577626 0.22596070439824867 0.28743768422577626 -0.0063805288000112585 0.24495971588364154 0.22596070439824872 0.24495971588364154 -0.01906827490629417" id=270 pbc="T T T"
Si       0.00000000       0.00000000       0.00000000       2.89174750      -3.45848917       0.76413399
Si       1.84975175       1.06795317       0.75515724      -2.89174870       3.45848923      -0.76413389
2
Lattice="3.5335825916939525 0.0 0.0 1.815035276619383 3.0779897732700454 0.0 1.6038483607877314 1.040518585302288 2.9839528107483893" Properties=species:S:1:pos:R:3:dft_force:R:3 dft_energy=-229.4912629898138 volume=32.45445869750939 dft_virial="-0.0326860615951153 0.3400156283922395 0.30624288952787926 0.3400156283922395 -0.035404562938741696 0.19884421120364462 0.30624288952787926 0.19884421120364465 -0.02278666588670213" id=302 pbc="T T T"
Si       0.00000000       0.00000000       0.00000000       7.25239975       5.36165013      -1.57453525
Si       1.81625922       1.04861792       0.74148541      -7.25239997      -5.36165034       1.57453514
2
Lattice="3.8031304842658917 0.0 0.0 2.171037134735174 3.3284996734295587 0.0 1.9772632119635902 1.1727405326053542 3.289353689031154" Properties=species:S:1:pos:R:3:dft_force:R:3 dft_energy=-230.13744970178053 volume=41.63900264271838 dft_virial="-0.003047798396106936 0.2679001460085479 0.2434108919257022 0.26790014600854783 -0.0016679552728192132 0.14459938274028306 0.24341089192570223 0.1445993827402831 0.007651305992397552" id=233 pbc="T T T"
Si       0.00000000       0.00000000       0.00000000      -3.08762742      -4.06419348      -7.62518065
Si       1.91066876       1.10312540       0.78002747       3.08762619       4.06419284       7.62518151
2
Lattice="3.6966625266985966 0.0 0.0 1.7515393019256442 3.1474307455944106 0.0 1.9100802387393017 1.0988565620517416 3.0743647747147853" Properties=species:S:1:pos:R:3:dft_force:R:3 dft_energy=-230.00934454305448 volume=35.770201235408116 dft_virial="-0.013844433207121266 0.2765347915406265 0.31095657923641895 0.2765347915406264 -0.020669360365566616 0.1803624001581541 0.3109565792364189 0.18036240015815413 -0.009495096277800066" id=266 pbc="T T T"
Si       0.00000000       0.00000000       0.00000000       1.76569727       4.62168454      -1.29921960
Si       1.86282456       1.07550045       0.76049332      -1.76569733      -4.62168457       1.29921918
4
Lattice="3.831799462839897 0.055124378030230535 0.08491409615756615 0.05515014801995992 3.8230367163322807 -0.12397358059044505 0.11550835396425321 -0.14355682278556212 3.9241662860271855" Properties=species:S:1:pos:R:3:dft_force:R:3 dft_energy=-458.3484596142069 volume=57.36645918744638 dft_virial="-0.001870153165323078 -0.0003068637802198748 0.0008308571776145296 -0.000306863780219875 -0.0012320318743738283 -0.0004863917318736264 0.00083085717761453 -0.0004863917318736263 -0.00510974215939863" id=2288 pbc="T T T"
Si       0.04966930      -0.01382504       0.06476746       4.23594765      -1.44281910      -2.44047795
Si       2.09139056       1.91567046      -0.02341360      -2.85111930       0.27620196      -0.84130920
Si       2.09700802       0.07674326       1.89213922      -4.08582070      -0.33099954       2.04356990
Si       0.05425707       1.89274275       1.89251424       2.70099589       1.49761417       1.23821682
2
Lattice="3.7252005153248073 0.0 0.0 1.6685163350143704 3.137352749610987 0.0 1.7472753036250568 1.06712057470009 3.026329793859082" Properties=species:S:1:pos:R:3:dft_force:R:3 dft_energy=-229.95978308891736 volume=35.36952759813151 dft_virial="-0.014317200568717128 0.26308653025718665 0.28864859464978754 0.26308653025718665 -0.020825812236650785 0.179366403082557 0.28864859464978754 0.17936640308255702 -0.013322310803281378" id=300 pbc="T T T"
Si       0.00000000       0.00000000       0.00000000      -3.08817720       0.58364227      -3.34555080
Si       1.81626056       1.04861808       0.74148408       3.08817776      -0.58364208       3.34555084
4
Lattice="3.9230758864617634 -0.04589022171049493 0.036193135575259563 -0.15321632893577497 3.9345771018779643 0.026981199246668194 0.0024411890270663894 -0.04515243200454032 3.781801002766736" Properties=species:S:1:pos:R:3:dft_force:R:3 dft_energy=-458.39612155920753 volume=58.35262478590612 dft_virial="-0.0013348405797586071 -0.00044722753443721065 0.0004959313223422949 -0.0004472275344372105 -0.0014540343263663006 -0.001070220366975869 0.0004959313223422947 -0.001070220366975869 0.00038252317126854824" id=2321 pbc="T T T"
Si       0.04967194      -0.01382424       0.06476809       1.35491865      -2.05727352      -0.10178137
Si       2.09139011       1.91566941      -0.02341412      -1.79660295       1.74008568      -0.54502688
Si       2.09700765       0.07674229       1.89213975      -2.38211811      -1.77715259       0.35484298
Si       0.05425609       1.89274430       1.89251503       2.82379705       2.09433447       0.29196706
2
Lattice="3.6858415310112944 0.0 0.0 1.7998272826805146 3.2940296871675394 0.0 1.9690592152332858 0.9645356155852296 2.983933810755962" Properties=species:S:1:pos:R:3:dft_force:R:3 dft_energy=-230.024382704945 volume=36.228750311655936 dft_virial="-0.013855033291556722 0.26822378662492846 0.3260357317538943 0.2682237866249285 -0.006468783825093238 0.15458632419610852 0.32603573175389433 0.1545863241961085 -0.01879031601932902" id=257 pbc="T T T"
Si       0.00000000       0.00000000       0.00000000       3.37979066      -0.90828171       5.12108699
Si       1.87711079       1.08375131       0.76632791      -3.37979217       0.90828297      -5.12108629
4
Lattice="3.879958203646275 0.027503169038637622 -0.13645548561579343 0.03629794553348764 3.8430764583454606 0.06140098552869447 0.006416357442766724 0.04774508097124249 3.914353599938022" Properties=species:S:1:pos:R:3:dft_force:R:3 dft_energy=-458.36782879694556 volume=58.35468965609826 dft_virial="-0.0011686083412002029 4.049733991315233e-05 -2.8769684974693057e-05 4.049733991315231e-05 2.9720369530555955e-05 0.0001077059874317103 -2.8769684974693057e-05 0.00010770598743171036 -0.0017650965466739815" id=2289 pbc="T T T"
Si       0.04967009      -0.01382528       0.06476786       2.19230191      -0.82381669      -1.32419123
Si       2.09139089       1.91567032      -0.02341485      -2.72901459       1.07178751      -2.47378575
Si       2.09700712       0.07674421       1.89213984      -1.70195022      -0.69446654       2.00371096
Si       0.05425743       1.89274358       1.89251323       2.23866660       0.44649791       1.79427160
4
Lattice="3.8974291666832395 0.02127106152243826 0.15382619869271194 -0.09872572065295608 3.8439850879833273 -0.10294965896950942 0.07513945005324223 0.10286115900478097 3.928357064356955" Properties=species:S:1:pos:R:3:dft_force:R:3 dft_energy=-458.35938959190815 volume=58.856672746441916 dft_virial="-0.0012140840923780178 -0.0006485125834835212 0.0010609893706609369 -0.0006485125834835214 0.0008517979615196754 -0.0007267385681618519 0.001060989370660937 -0.0007267385681618519 -0.0011112120529598712" id=2304 pbc="T T T"
Si       0.04966917      -0.01382435       0.06476744       3.15984285      -0.73865290      -1.85023808
Si       2.09138815       1.91567223      -0.02341598      -1.93146202       0.79715325      -1.86842062
Si       2.09700732       0.07674243       1.89213770      -3.63756486      -0.74923749       2.29527466
Si       0.05425479       1.89274557       1.89251438       2.40918173       0.69073008       1.42338502
2
Lattice="3.571143576724057 0.0 0.0 1.526910391451287 3.238268709391025 0.0 1.8706972544353533 1.4388014265670328 2.9532408229886236" Properties=species:S:1:pos:R:3:dft_force:R:3 dft_energy=-229.66976794371828 volume=34.15222930089227 dft_virial="-0.025647312224380797 0.24940484313357955 0.3365835755954938 0.24940484313357955 -0.01360029385463643 0.2581042753241659 0.33658357559549384 0.25810427532416597 -0.019748419871795462" id=292 pbc="T T T"
Si       0.00000000       0.00000000       0.00000000       6.95359838      -5.01144342      -0.08293511
Si       1.82656159       1.05456590       0.74569035      -6.95359820       5.01144354       0.08293538
2
Lattice="2.5873456288158123 0.022242931135100535 0.013610284575633772 -1.286379687314575 2.355729141126347 0.011290555500159631 -0.1329155270266406 0.026484729444535775 4.637741741632354" Properties=species:S:1:pos:R:3:dft_force:R:3 dft_energy=-229.25746276781143 volume=28.40312225005953 dft_virial="-0.00487584185705125 -0.0004858260041366621 -9.893623947247562e-05 -0.00048582600413666185 0.0006678559301672599 0.0011151375985578623 -9.89362394724756e-05 0.0011151375985578623 -0.0008980631355729026" id=2353 pbc="T T T"
Si       0.04967034      -0.01382669       0.06476771      -0.37953621       0.19082513      -2.54460563
Si       0.15230152       1.52521881       2.30292033       0.37953615      -0.19082516       2.54460724
2
Lattice="3.5580605819382725 0.0 0.0 1.859439258922217 3.0902397683878213 0.0 1.9583392195057299 1.2010945213048985 3.022074795554908" Properties=species:S:1:pos:R:3:dft_force:R:3 dft_energy=-229.62131172404375 volume=33.2284990493025 dft_virial="-0.02955034879976809 0.3365745838279642 0.3618382687497192 0.33657458382796424 -0.031836014041897634 0.22286285098331296 0.3618382687497192 0.2228628509833129 -0.017169975633037755" id=305 pbc="T T T"
Si       0.00000000       0.00000000       0.00000000       3.45741345       2.66604159      -4.37268304
Si       1.81626087       1.04861845       0.74148418      -3.45741351      -2.66604095       4.37268335
4
Lattice="3.9254811755031374 -0.05647275749283515 -0.14791231104968633 0.03134547750728916 3.787817460368883 0.09426461243092661 0.0028808788518284198 0.026233829544531694 3.8318863728052586" Properties=species:S:1:pos:R:3:dft_force:R:3 dft_energy=-458.3919293964913 volume=56.974894747632085 dft_virial="-0.004401480692413388 -0.001173884830756955 0.00035688852807239395 -0.001173884830756955 -0.0005857187665702878 0.0013528791107098692 0.0003568885280723941 0.00135287911070987 -0.002246045333199623" id=2302 pbc="T T T"
Si       0.04967000      -0.01382484       0.06476981       2.02578063      -0.22940671      -0.93300132
Si       2.09138847       1.91567181      -0.02341239      -2.31811654       0.49922878      -1.42178157
Si       2.09700757       0.07674284       1.89213668      -1.56471469      -0.10452074       1.05265569
Si       0.05425545       1.89274529       1.89251507       1.85705772      -0.16529982       1.30213212
2
Lattice="3.724007515800277 0.0 0.0 1.96633321631973 3.190689728353584 0.0 2.0394631871738484 0.897354642360144 3.1035587630795485" Properties=species:S:1:pos:R:3:dft_force:R:3 dft_energy=-230.06896858375876 volume=36.876958605549724 dft_virial="-0.011148332156856035 0.2953264490027863 0.316032599206622 0.2953264490027863 -0.014310249668526101 0.13640964995423452 0.31603259920662197 0.13640964995423446 -0.005393916823314484" id=263 pbc="T T T"
Si       0.00000000       0.00000000       0.00000000      -2.22870431       1.95647150      -4.39700711
Si       1.86282471       1.07550314       0.76049604       2.22870374      -1.95647185       4.39700649
2
Lattice="2.780653281773227 0.05340287871633248 -0.03637687550203019 -1.4152224159644256 2.207915560037312 -0.010893365658459274 0.020079991997137912 -0.11666491350330749 4.431524393820085" Properties=species:S:1:pos:R:3:dft_force:R:3 dft_energy=-229.24885140852524 volume=27.53409427491909 dft_virial="-0.0036191524920389786 0.00030015237727532603 -0.00031001881224574523 0.0003001523772753259 -0.0034568822664999563 -0.0011221503929234873 -0.00031001881224574523 -0.0011221503929234877 -0.005738204759530489" id=2359 pbc="T T T"
Si       0.04967255      -0.01382679       0.06477117      -0.24706252       0.11909623       2.14587982
Si       0.15230248       1.52521739       2.30291900       0.24706257      -0.11909622      -2.14588061
4
Lattice="3.985901551422653 -0.031767427339121454 0.03345411666689299 -0.0808850977633197 3.901208255177087 -0.10481614822562185 0.04181385333512774 0.09504187212115046 3.8487404560880796" Properties=species:S:1:pos:R:3:dft_force:R:3 dft_energy=-458.392634701525 volume=59.87151037054053 dft_virial="0.00020818808582434212 0.00034527748708852935 0.0006288455944537424 0.00034527748708852935 0.0013270408519038474 -0.0003516707933216914 0.0006288455944537421 -0.0003516707933216913 0.002870287917879639" id=2282 pbc="T T T"
Si       0.04967006      -0.01382419       0.06477024       0.79258233      -1.62206011      -0.63693359
Si       2.09138756       1.91567267      -0.02341552      -0.43238239       1.73480380      -1.16418224
Si       2.09700646       0.07674169       1.89214006      -1.39713740      -1.14351798       0.67059222
Si       0.05425565       1.89274358       1.89251209       1.03694000       1.03077167       1.13052581
2
Lattice="2.6335406004048494 -0.08268389704640992 -0.05737514713318861 -1.2879904266726163 2.389587987631935 0.10119561966858014 0.10170943946379774 0.02648340944506186 4.606353594142069" Properties=species:S:1:pos:R:3:dft_force:R:3 dft_energy=-229.25588441508194 volume=28.505572060316464 dft_virial="-0.0030912478384245074 0.0007180029852161229 0.0002947018304759904 0.000718002985216123 -0.0002177732880812823 0.0007529832300203486 0.00029470183047599046 0.0007529832300203486 -0.0007802964597082326" id=2354 pbc="T T T"
Si       0.04967023      -0.01382532       0.06477090      -0.10512199       0.28045160      -2.96574854
Si       0.15230233       1.52521825       2.30292267       0.10512198      -0.28045187       2.96574954
2
Lattice="3.7568355027167133 0.0 0.0 2.1017711623410626 3.28726968986173 0.0 2.0486071835295174 1.0970055627894557 3.119594756688418" Properties=species:S:1:pos:R:3:dft_force:R:3 dft_energy=-230.1829474779922 volume=38.52615756489534 dft_virial="-0.006617126401769684 0.2920243365825918 0.297889573787946 0.2920243365825917 -0.0057826982350559246 0.15785797858058054 0.29788957378794595 0.15785797858058054 -0.00366327334388779" id=232 pbc="T T T"
Si       0.00000000       0.00000000       0.00000000      -0.53524283      -0.81152885      -1.55273700
Si       1.91067065       1.10312554       0.78002659       0.53524260       0.81152829       1.55273696
4
Lattice="3.8383803102171057 -0.06823676280430181 -0.07607300968117292 -0.005098617967950562 3.865889269253436 -0.05640699751904374 0.04996602008608929 -0.07295727092294771 3.7986273760606006" Properties=species:S:1:pos:R:3:dft_force:R:3 dft_energy=-458.33056035657506 volume=56.36463517198953 dft_virial="-0.0031860124911654874 -0.0008766107468008693 0.00018357513610830744 -0.0008766107468008693 -0.005330703947817582 0.0004026239336427429 0.0001835751361083074 0.0004026239336427427 -0.0034111327668789122" id=2322 pbc="T T T"
Si       0.04967133      -0.01382484       0.06476795       2.82674212      -1.57456334      -0.77383578
Si       2.09138877       1.91567255      -0.02341321      -3.15783909       1.33471959      -0.37121461
Si       2.09700540       0.07674438       1.89213729      -3.41600787      -1.77046149       0.51110049
Si       0.05425497       1.89274618       1.89251172       3.74710295       2.01030613       0.63395151
4
Lattice="3.7461995869556475 -0.11884573263414407 0.11970824229039163 0.023357360690945673 4.0117019811399155 0.0178047329039403 -0.01565713375986394 -0.00844988663230556 3.991752459090779" Properties=species:S:1:pos:R:3:dft_force:R:3 dft_energy=-458.1933538297919 volume=60.00976891940867 dft_virial="-0.0020512900568341974 -0.0021367581210636013 0.0021207854412791864 -0.0021367581210636013 -0.0009557714977180569 -0.001538503744269901 0.0021207854412791864 -0.001538503744269901 -0.00025939650881758817" id=2317 pbc="T T T"
Si       0.04967080      -0.01382703       0.06476902       5.08084909      -2.87537653      -3.89627440
Si       2.09139016       1.91567088      -0.02341368      -3.41688461       1.99998306      -2.37838767
Si       2.09700607       0.07674213       1.89213886      -7.25743936      -3.92655566       4.18296377
Si       0.05425761       1.89274360       1.89251227       5.59349340       4.80193161       2.09170993
2
Lattice="3.6499395453199974 0.0 0.0 1.394613444178112 3.1060147621007124 0.0 1.7168173157640596 0.994873603494053 2.887686849115098" Properties=species:S:1:pos:R:3:dft_force:R:3 dft_energy=-229.50597783212646 volume=32.73703040312205 dft_virial="-0.021309476161247655 0.24526744169600653 0.33138137705496484 0.24526744169600653 -0.02608006121003641 0.1916723053105214 0.33138137705496473 0.19167230531052135 -0.03348188736258818" id=313 pbc="T T T"
Si       0.00000000       0.00000000       0.00000000      -0.67175467      -0.51990063       4.87931977
Si       1.80670596       1.04310135       0.73758453       0.67175427       0.51990055      -4.87932008
2
Lattice="2.612849798651149 0.0751821600362202 -0.09332456280558249 -1.3825991289664064 2.2981726840654195 0.04873393057713741 0.06236110514603969 -0.19366389281543608 4.63602818231529" Properties=species:S:1:pos:R:3:dft_force:R:3 dft_energy=-229.26986478701366 volume=28.333504699864584 dft_virial="-0.004184347518746987 -0.0003399476292669347 0.0007153887967334731 -0.0003399476292669343 9.953384026603184e-05 -0.0010603134418677724 0.0007153887967334731 -0.0010603134418677726 -0.0010232503389966947" id=2350 pbc="T T T"
Si       0.04967202      -0.01382673       0.06476970      -0.56655659       0.04013694      -1.73835953
Si       0.15230383       1.52521741       2.30292312       0.56655668      -0.04013686       1.73835824
2
Lattice="3.7362885109056974 0.0 0.0 1.9087852392554225 3.3009766843988206 0.0 2.031437190372602 1.1075415585903445 3.128479753147311" Properties=species:S:1:pos:R:3:dft_force:R:3 dft_energy=-230.20751694047507 volume=38.58479613150049 dft_virial="-0.008240196644545637 0.26183657077795447 0.2948077514933037 0.2618365707779545 -0.00498979298836031 0.15824580299159738 0.29480775149330385 0.1582458029915974 -0.0032092076388425443" id=231 pbc="T T T"
Si       0.00000000       0.00000000       0.00000000       2.47477147       0.08516633      -0.63625055
Si       1.91066872       1.10312493       0.78002699      -2.47477153      -0.08516708       0.63624985
2
Lattice="2.741504977375747 -0.08060010787690215 0.0200375320140603 -1.4106055378044782 2.3173376464272417 -0.04087850370791046 0.0057739976987785996 -0.02369481055645534 4.530280814460806" Properties=species:S:1:pos:R:3:dft_force:R:3 dft_energy=-229.2683506106739 volume=28.263536023768403 dft_virial="-0.001263835781491178 -0.001103059317822958 -7.840839039707322e-05 -0.001103059317822958 -0.001826797785801376 -0.0008603801213869016 -7.840839039707319e-05 -0.0008603801213869016 -0.001685795769235264" id=2365 pbc="T T T"
Si       0.04967120      -0.01382644       0.06476797      -0.31728320       0.04448312      -0.13854819
Si       0.15230268       1.52521750       2.30292240       0.31728306      -0.04448310       0.13854814
2
Lattice="3.81416947986631 0.0 0.0 1.7116563178209703 3.3752066548145345 0.0 1.8571282598432635 1.0892265658897675 3.0452667863117617" Properties=species:S:1:pos:R:3:dft_force:R:3 dft_energy=-230.18571551519526 volume=39.203577595589636 dft_virial="-0.004406592153694152 0.21834872337355288 0.2665371343749233 0.21834872337355288 0.001023955310201388 0.15471480545271082 0.2665371343749234 0.15471480545271082 -0.0089640421615891" id=252 pbc="T T T"
Si       0.00000000       0.00000000       0.00000000      -0.48000214      -4.38927956       1.31586230
Si       1.87711334       1.08375083       0.76632920       0.48000208       4.38927919      -1.31586294
2
Lattice="4.071917377141126 0.0 0.0 1.8917492460451018 3.3282716735204274 0.0 1.8553792605403256 1.1885035263230277 3.0724187754903616" Properties=species:S:1:pos:R:3:dft_force:R:3 dft_energy=-230.133239891535 volume=41.63879342546581 dft_virial="0.0077343702566499495 0.2265571072588313 0.2416777387657152 0.2265571072588312 -0.0002208495923009814 0.1586434936228501 0.24167773876571516 0.1586434936228501 -0.006433595917739821" id=228 pbc="T T T"
Si       0.00000000       0.00000000       0.00000000      -4.28002095      -0.63875993       2.93869912
Si       1.93079599       1.11474493       0.78824440       4.28001169       0.63876208      -2.93869667
2
Lattice="3.6630195401069776 0.0 0.0 1.8479152635150946 3.1558137422533754 0.0 1.8187642751331938 1.3671174551366128 3.0422937874966474" Properties=species:S:1:pos:R:3:dft_force:R:3 dft_energy=-229.90048647946085 volume=35.16833024623344 dft_virial="-0.018128402395394407 0.2979216537206689 0.30394731500967537 0.29792165372066887 -0.01926079299582221 0.23430684857585052 0.30394731500967526 0.2343068485758505 -0.01175032230578658" id=294 pbc="T T T"
Si       0.00000000       0.00000000       0.00000000      -0.66395202      -1.54617261      -5.11611057
Si       1.82656181       1.05456647       0.74569054       0.66395153       1.54617225       5.11611049
4
Lattice="3.9256823954229416 0.08109370768017841 -0.10862019670952187 0.01675210332346484 3.8033830841652176 -0.009427276242767842 -0.08362011667328047 -0.006443787431834527 3.9740183761586816" Properties=species:S:1:pos:R:3:dft_force:R:3 dft_energy=-458.3831641897082 volume=59.2954607309755 dft_virial="0.0007426184693757479 0.0007821209365657501 0.00011118015541496855 0.0007821209365657501 0.001742947478340799 -0.0005064043792052002 0.00011118015541496854 -0.0005064043792052002 -0.0005534114000962365" id=2295 pbc="T T T"
Si       0.04967115      -0.01382723       0.06476949       1.49415342      -0.86926702      -1.86381404
Si       2.09139027       1.91567273      -0.02341336      -2.28002937       0.60551650      -2.28598693
Si       2.09700796       0.07674338       1.89213939      -1.01014099      -0.14913225       2.07689556
Si       0.05425405       1.89274450       1.89251378       1.79601985       0.41288548       2.07290328
2
Lattice="2.700417943750946 -0.013445714641222966 0.036085925617987985 -1.3516351613070667 2.381939000680432 0.006502617408387894 0.06630411357455734 -0.15431923849621135 4.6633490814265715" Properties=species:S:1:pos:R:3:dft_force:R:3 dft_energy=-229.25110788002496 volume=29.915519170020143 dft_virial="0.0020147927119219 0.00031084850826975063 0.0003156731872209776 0.0003108485082697504 0.003514371234997804 6.951558758928796e-05 0.0003156731872209775 6.951558758928792e-05 0.0015355166318093024" id=2339 pbc="T T T"
Si       0.04967086      -0.01382652       0.06477068      -0.06835474      -0.11057959      -2.38194713
Si       0.15230230       1.52521935       2.30291978       0.06835503       0.11057971       2.38194730
2
Lattice="2.686527759286866 0.13641635563138862 -0.031287597530357175 -1.2701641237772727 2.223981003634445 0.01509430398417922 -0.025670469769058204 -0.05442457830913505 4.671138668322039" Properties=species:S:1:pos:R:3:dft_force:R:3 dft_energy=-229.24510167598427 volume=28.716635864677485 dft_virial="-0.000484305661472403 0.001723563488376026 -0.00020798617758890068 0.0017235634883760265 -0.002794548375572115 -0.00028568290716047797 -0.00020798617758890063 -0.0002856829071604779 0.0005913814482317202" id=2337 pbc="T T T"
Si       0.04967193      -0.01382610       0.06476917      -0.17781583      -0.11747771      -2.54260130
Si       0.15230063       1.52521941       2.30291944       0.17781605       0.11747764       2.54260055
2
Lattice="3.5914145686450722 0.0 0.0 1.948973223238539 3.1265727539073445 0.0 1.8467962639610709 0.9994566016675033 2.8910038477931117" Properties=species:S:1:pos:R:3:dft_force:R:3 dft_energy=-229.53873366577682 volume=32.462558756830944 dft_virial="-0.027984440943261323 0.35820199533658525 0.3650175047287112 0.3582019953365854 -0.026879220772061667 0.19621178247215892 0.3650175047287113 0.19621178247215887 -0.03573281271072009" id=314 pbc="T T T"
Si       0.00000000       0.00000000       0.00000000       0.66205073      -0.33869362       4.26525424
Si       1.80670413       1.04310130       0.73758471      -0.66205058       0.33869378      -4.26525401
4
Lattice="3.9090754020416436 0.04646436148167205 0.0341471163906986 -0.14193789343078492 3.8754395154471943 0.008511396607790819 -0.06747962310605912 0.06715936323369841 4.031913413084668" Properties=species:S:1:pos:R:3:dft_force:R:3 dft_energy=-458.33491586458234 volume=61.11394362667572 dft_virial="0.0022751089520991513 -0.0004947443672703328 2.2190139538336434e-06 -0.0004947443672703329 0.002255771743149577 0.0003344873601205178 2.2190139538336494e-06 0.0003344873601205177 0.001107413615094826" id=2285 pbc="T T T"
Si       0.04967102      -0.01382541       0.06476978       1.17216100      -0.90898669      -1.87231514
Si       2.09138954       1.91567193      -0.02341582      -1.26973514       0.96220043      -2.44246509
Si       2.09700881       0.07674367       1.89214001      -1.94154288      -0.91649344       2.26389946
Si       0.05425683       1.89274527       1.89251328       2.03912183       0.86327634       2.05087765
2
Lattice="3.7428155083043686 0.0 0.0 1.5515513816306434 3.053200783149675 0.0 1.3819564492225456 0.9020116405041017 2.9962368058526145" Properties=species:S:1:pos:R:3:dft_force:R:3 dft_energy=-229.5915869588542 volume=34.239697569258226 dft_virial="-0.011753200972587138 0.26050073083325886 0.23413202406914418 0.26050073083325886 -0.030038599029513877 0.15932429594853617 0.23413202406914418 0.15932429594853617 -0.015261577085375951" id=289 pbc="T T T"
Si       0.00000000       0.00000000       0.00000000      -2.06186670       7.40612852      -2.83589195
Si       1.82655998       1.05456490       0.74568843       2.06186686      -7.40612875       2.83589174
2
Lattice="2.812573589051418 0.08879883460930726 -0.023121780784835823 -1.4397530561877616 2.1815228605560977 -0.023174100763983747 -0.12070272189404273 -0.16245667525304355 4.609738392793061" Properties=species:S:1:pos:R:3:dft_force:R:3 dft_energy=-229.27648006544092 volume=28.851453106128414 dft_virial="-1.2897033034862232e-05 0.0005618762282484289 -1.1369134221941438e-06 0.0005618762282484294 -0.0019361932433012397 -0.0004306394130624184 -1.1369134221941625e-06 -0.0004306394130624182 0.000588096132394897" id=2343 pbc="T T T"
Si       0.04967095      -0.01382520       0.06476799      -0.77719070       0.22341602      -0.74076799
Si       0.15230329       1.52521846       2.30291921       0.77719067      -0.22341588       0.74076771
2
Lattice="2.6848675799485293 -0.010003236013219613 -0.008355566669896694 -1.3610203775665974 2.260777178969363 0.07693345933824151 -0.056694257404556574 0.22952278852390665 4.547251417697187" Properties=species:S:1:pos:R:3:dft_force:R:3 dft_energy=-229.24460231056045 volume=27.493568310593755 dft_virial="-0.005166271500744594 -0.0008942977085116039 -0.0009315340349838158 -0.0008942977085116039 -0.004433896792344702 0.0012143668725726642 -0.0009315340349838159 0.0012143668725726644 -0.0044607808452936295" id=2329 pbc="T T T"
Si       0.04967130      -0.01382604       0.06476817      -0.10629350       0.44305807      -2.63021473
Si       0.15230287       1.52521803       2.30292092       0.10629361      -0.44305806       2.63021467
2
Lattice="3.6599225413412837 0.0 0.0 1.6973673235158357 3.052120783580107 0.0 1.4059054396776978 0.954713619499777 2.9157208379421786" Properties=species:S:1:pos:R:3:dft_force:R:3 dft_energy=-229.4446673738912 volume=32.570134422237906 dft_virial="-0.01970957892506815 0.31123261719294815 0.2670765073140183 0.31123261719294826 -0.03461061851990369 0.18672691877768668 0.2670765073140184 0.1867269187776867 -0.028694311357482072" id=288 pbc="T T T"
Si       0.00000000       0.00000000       0.00000000       0.37988648       7.90406336       1.59769909
Si       1.82655904       1.05456521       0.74568977      -0.37988657      -7.90406322      -1.59769928
4
Lattice="3.8434355182023574 -0.09768315106847122 0.08971460424432813 -0.05575142778032044 3.937680580641076 -0.020565521803630457 -0.021623141382117166 0.019983472035605854 3.717508148390593" Properties=species:S:1:pos:R:3:dft_force:R:3 dft_energy=-458.3226255332227 volume=56.25042082846885 dft_virial="-0.004884753772850508 -0.0005336088539296182 0.0013910774731642503 -0.0005336088539296184 -0.0051673357872060255 -0.001194278225728164 0.0013910774731642503 -0.0011942782257281636 -0.003433850277439853" id=2306 pbc="T T T"
Si       0.04967010      -0.01382543       0.06477080       3.63215748      -2.12651780      -0.00398553
Si       2.09139064       1.91567021      -0.02341568      -3.83205990       2.07483167       0.64741127
Si       2.09700666       0.07674314       1.89213716      -4.77146938      -2.79683577       0.12054131
Si       0.05425695       1.89274571       1.89251494       4.97136875       2.84852044      -0.76396774
2
Lattice="3.732015512608697 0.0 0.0 2.348127064156148 3.1853697304738637 0.0 1.8822162498444686 1.2541865001451395 2.9236818347693307" Properties=species:S:1:pos:R:3:dft_force:R:3 dft_energy=-229.73582771174443 volume=34.75628889945821 dft_virial="-0.010543641228811768 0.3842468696701761 0.3314499365362386 0.38424686967017607 -0.014661653383801666 0.22295597224204272 0.33144993653623855 0.22295597224204278 -0.02398914521583997" id=286 pbc="T T T"
Si       0.00000000       0.00000000       0.00000000      -5.82820663      -5.77896785       2.12016351
Si       1.83770334       1.06099934       0.75024015       5.82820667       5.77896830      -2.12016329
4
Lattice="3.815479989344008 -0.1282559788836992 0.04816365080442188 0.04781688094262669 3.91605118926145 0.030848997705160728 -0.11257763513228848 -0.03867993458414813 3.8498455956476274" Properties=species:S:1:pos:R:3:dft_force:R:3 dft_energy=-458.3221336468939 volume=57.5726633722122 dft_virial="-0.0031820240254927523 -0.0016839948468541554 0.0003047190804416863 -0.0016839948468541554 -0.0036196772604947945 -0.00039014294965570895 0.0003047190804416862 -0.0003901429496557088 -0.0018204081062966524" id=2314 pbc="T T T"
Si       0.04967102      -0.01382528       0.06477005       3.35977137      -2.12969314      -1.12731347
Si       2.09138956       1.91567081      -0.02341355      -3.40752078       1.35890995      -1.45451394
Si       2.09700818       0.07674261       1.89213762      -4.37924714      -2.34439116       1.47643741
Si       0.05425739       1.89274474       1.89251319       4.42698924       3.11516916       1.10539143
2
Lattice="2.6419704070451577 0.020203631947861324 -0.058128276833029464 -1.2942967641592316 2.3658479570935027 0.026988249243858425 0.03615958558863088 -0.06614368363849656 4.613025951482808" Properties=species:S:1:pos:R:3:dft_force:R:3 dft_energy=-229.27050214869345 volume=28.959080679895216 dft_virial="-0.0010531850447492877 -0.0008157225216506383 0.0004489110914947252 -0.0008157225216506381 0.0008852004193776452 0.0003656009806709294 0.0004489110914947253 0.0003656009806709294 0.0010469655336638561" id=2342 pbc="T T T"
Si       0.04967164      -0.01382482       0.06476851      -0.17996489       0.05390894      -1.41558790
Si       0.15230123       1.52521776       2.30292084       0.17996453      -0.05390856       1.41558743
2
Lattice="3.8226784764750574 0.0 0.0 1.8813472501908075 3.2113917201028244 0.0 2.2661750968180283 1.128243550339585 3.0310767919671706" Properties=species:S:1:pos:R:3:dft_force:R:3 dft_energy=-230.04820315822283 volume=37.20985638939989 dft_virial="-0.0030752535807774973 0.2754398399035671 0.35630544556595023 0.27543983990356713 -0.011688479634691573 0.1772058002229901 0.35630544556595034 0.17720580022299012 -0.01133753653692543" id=243 pbc="T T T"
Si       0.00000000       0.00000000       0.00000000      -4.01469845       1.36824713      -0.28368497
Si       1.89292140       1.09287986       0.77278212       4.01469853      -1.36824729       0.28368516
4
Lattice="3.9019863448669803 0.03270203696663366 -0.024494730237648102 0.11959559233528819 3.9752256756775135 0.00998338602113081 0.03780907493122843 -0.014211724335930518 3.9422329088267496" Properties=species:S:1:pos:R:3:dft_force:R:3 dft_energy=-458.3362415872984 volume=61.13793489786503 dft_virial="0.00177187831775547 8.69744768737879e-05 0.000306757458115424 8.697447687378788e-05 0.0014349607331094613 -7.091791568065132e-05 0.00030675745811542396 -7.091791568065132e-05 0.0026751497656942866" id=2296 pbc="T T T"
Si       0.04967254      -0.01382485       0.06476814       2.09164368      -2.22385947      -0.94597096
Si       2.09138858       1.91566956      -0.02341319      -1.66830444       1.74584287      -1.72215114
Si       2.09700877       0.07674478       1.89213865      -1.34977368      -1.15318346       1.42681095
Si       0.05425683       1.89274375       1.89251489       0.92643578       1.63119788       1.24131534
4
Lattice="3.867195068733011 -0.05962183623777275 -0.04123170356714299 0.07805852888984609 3.86440577984468 0.0008917496445940105 0.009403086252408741 0.018084472792450228 3.989667459921754" Properties=species:S:1:pos:R:3:dft_force:R:3 dft_energy=-458.35108244838034 volume=59.643175240317944 dft_virial="-7.213235528635246e-05 -0.0005886306512467672 -8.929464280006737e-05 -0.0005886306512467674 0.0003239452335093636 -7.289685413974091e-05 -8.929464280006737e-05 -7.289685413974088e-05 0.00036081426394412393" id=2287 pbc="T T T"
Si       0.04967041      -0.01382695       0.06476897       2.25975732      -1.50807267      -1.63821628
Si       2.09138733       1.91567034      -0.02341236      -2.26484731       1.27979709      -2.23769469
Si       2.09700813       0.07674110       1.89213677      -2.37523728      -1.15508992       1.97745767
Si       0.05425539       1.89274609       1.89251326       2.38033190       1.38336482       1.89847332
4
Lattice="3.7837460519915385 -0.12286365103280644 0.06503353408094563 0.08074691781839119 3.8514146950222643 -0.0998822501920223 -0.0632099248077434 0.07228500119088017 3.9087017421905648" Properties=species:S:1:pos:R:3:dft_force:R:3 dft_energy=-458.28794244511766 volume=57.042164036948826 dft_virial="-0.00358495872473196 -0.0022734156251847173 0.001295676874157271 -0.002273415625184718 -0.0041771942920807974 0.00013008761809855007 0.001295676874157271 0.00013008761809855005 -0.0035555554969715613" id=2311 pbc="T T T"
Si       0.04967096      -0.01382528       0.06476996       4.22549998      -1.14522055      -2.51750061
Si       2.09139025       1.91567078      -0.02341576      -3.74827672       0.85008479      -1.57432363
Si       2.09700843       0.07674453       1.89213640      -5.19565773      -2.47608933       2.29853694
Si       0.05425554       1.89274476       1.89251510       4.71843183       2.77122277       1.79329005
2
Lattice="3.9937834082813466 0.0 0.0 1.8996342429025435 3.3169966780140663 0.0 1.9353582286647826 1.1924845247364044 3.1578967414231975" Properties=species:S:1:pos:R:3:dft_force:R:3 dft_energy=-230.2265981454355 volume=41.83381486482081 dft_virial="0.005220546547718222 0.22753773757203252 0.24495235691415748 0.22753773757203252 -0.001216301042477659 0.15392791429623026 0.2449523569141574 0.15392791429623023 0.00037530341015807353" id=229 pbc="T T T"
Si       0.00000000       0.00000000       0.00000000      -3.71029820      -0.32786544      -1.06955724
Si       1.93079620       1.11474513       0.78824261       3.71030498       0.32786297       1.06955667
4
Lattice="3.7737258159850944 0.005512717802911459 0.02898135844950661 0.07595086972985168 3.927091144861486 -0.06440223433254956 -0.03153375743225038 0.03276344694215877 3.940440819540985" Properties=species:S:1:pos:R:3:dft_force:R:3 dft_energy=-458.3023399091782 volume=58.40639297883996 dft_virial="-0.0017611352812209723 -0.0001440286523052813 0.0006428475156488894 -0.00014402865230528125 -0.0016599318194878445 0.0003405456795295804 0.0006428475156488891 0.0003405456795295804 -0.0016139566858801738" id=2310 pbc="T T T"
Si       0.04966980      -0.01382498       0.06477065       4.09109527      -2.42967878      -2.64593190
Si       2.09138869       1.91567284      -0.02341284      -3.62216327       2.15446370      -2.18246385
Si       2.09700811       0.07674346       1.89213847      -4.10372246      -1.97786075       2.66571636
Si       0.05425509       1.89274391       1.89251276       3.63479126       2.25306103       2.16269258
2
Lattice="3.6942545276583023 0.0 0.0 1.7730982933333284 3.127986753343796 0.0 1.8539402611138374 1.1219025528667836 3.108642761053326" Properties=species:S:1:pos:R:3:dft_force:R:3 dft_energy=-229.99025653923883 volume=35.922167710669164 dft_virial="-0.014560325184701337 0.27979507221504024 0.29564806031146074 0.27979507221504024 -0.02266849409375761 0.1820518360863783 0.2956480603114606 0.1820518360863782 -0.006218913976596555" id=278 pbc="T T T"
Si       0.00000000       0.00000000       0.00000000       0.76033410       4.51106999      -4.06138445
Si       1.84974936       1.06795369       0.75515772      -0.76033506      -4.51107040       4.06138217
2
Lattice="3.799631485660414 0.0 0.0 1.7658742962124456 3.205406722488139 0.0 1.6015623616988142 1.1503085415456034 3.123925754962303" Properties=species:S:1:pos:R:3:dft_force:R:3 dft_energy=-230.11040037850577 volume=38.047429838060445 dft_virial="-0.004343503512008148 0.24849757556722346 0.22971193246064936 0.24849757556722338 -0.011851695555738303 0.170058577551337 0.22971193246064925 0.17005857755133696 -0.0033903289768887654" id=247 pbc="T T T"
Si       0.00000000       0.00000000       0.00000000       3.07903464       4.52450696      -0.78502346
Si       1.89292050       1.09287781       0.77278113      -3.07903488      -4.52450707       0.78502348
2
Lattice="4.053007384677686 0.0 0.0 1.9357082285252902 3.23054671246862 0.0 1.8572432597974304 0.9630276161862414 3.0322317915068466" Properties=species:S:1:pos:R:3:dft_force:R:3 dft_energy=-230.04645080493938 volume=39.702313742170254 dft_virial="0.0067652379143997455 0.2562109195963607 0.26162333051863235 0.2562109195963608 -0.007726302017790088 0.1390554418829166 0.2616233305186324 0.13905544188291658 -0.011250555774986435" id=226 pbc="T T T"
Si       0.00000000       0.00000000       0.00000000      -4.30557046       5.88876141       5.59420937
Si       1.93079482       1.11474446       0.78824382       4.30556713      -5.88876133      -5.59420873
2
Lattice="2.671537365261274 0.011931005244908985 -0.013319954691344477 -1.3232989926004202 2.3578572202782033 -0.013748004520745616 0.04815482080794106 0.06641768352929416 4.48655577188738" Properties=species:S:1:pos:R:3:dft_force:R:3 dft_energy=-229.27165786248926 volume=28.33722952535063 dft_virial="-0.001018577485866237 0.00041719455179342857 0.00019680033845388898 0.00041719455179342857 0.0006662899048195494 3.903234195820083e-07 0.00019680033845388898 3.903234195820176e-07 -0.0030001311434704864" id=2345 pbc="T T T"
Si       0.04967203      -0.01382593       0.06476953      -0.10397715       0.24161263       0.33320795
Si       0.15230360       1.52521774       2.30292285       0.10397729      -0.24161284      -0.33320785
2
Lattice="2.5617575090139333 -0.08882890459732289 0.010987055621119226 -1.3012548213861042 2.3530630521889147 -0.05367428860816232 -0.0313105575212065 -0.06553904387947516 4.625515686505036" Properties=species:S:1:pos:R:3:dft_force:R:3 dft_energy=-229.2380988170575 volume=27.340428541615076 dft_virial="-0.006805949949119124 6.0746408186043455e-05 0.0005563681620275854 6.074640818604344e-05 -0.005635624063561817 -0.0008684794009814032 0.000556368162027585 -0.0008684794009814028 -0.0030784847894089985" id=2347 pbc="T T T"
Si       0.04967006      -0.01382615       0.06477023      -0.49731926       0.04312515      -1.51130643
Si       0.15230190       1.52521842       2.30292114       0.49731945      -0.04312516       1.51130603
2
Lattice="2.690789017588546 0.043847182524746287 0.011969205229684414 -1.3306384896752708 2.2119157784430286 0.11566152390320748 0.08355686669848868 -0.06565409383362211 4.437432781465302" Properties=species:S:1:pos:R:3:dft_force:R:3 dft_energy=-229.20972607469903 volume=26.689297656178102 dft_virial="-0.006602022871755633 0.0018736081758863848 0.0009607147272867178 0.0018736081758863848 -0.0071790919065959505 0.00214457721278958 0.0009607147272867177 0.00214457721278958 -0.008578086490852729" id=2336 pbc="T T T"
Si       0.04967178      -0.01382624       0.06476932      -0.06658257       0.04751857      -3.14630882
Si       0.15230217       1.52521782       2.30291919       0.06658249      -0.04751855       3.14630884
4
Lattice="3.8525532845684802 -0.045766021759994696 -0.06864455264177753 0.021584261397612742 3.856203003113888 -0.03594743567318303 0.08427959641044543 0.16106352580828198 3.815219239447929" Properties=species:S:1:pos:R:3:dft_force:R:3 dft_energy=-458.34981091288796 volume=56.72804896523866 dft_virial="-0.002150139659038945 -0.0006331329615454665 -5.555651140920252e-07 -0.0006331329615454665 -0.0041555737761302955 -0.00020395776106390618 -5.555651140920335e-07 -0.00020395776106390618 -0.0036110526271847763" id=2324 pbc="T T T"
Si       0.04967172      -0.01382442       0.06476902       2.68268589      -1.11581434      -0.64852535
Si       2.09138961       1.91566958      -0.02341431      -2.51026221       1.48609442      -1.26600608
Si       2.09700646       0.07674471       1.89213833      -3.01686572      -1.59337128       0.96944448
Si       0.05425739       1.89274315       1.89251358       2.84444344       1.22309271       0.94508760
2
Lattice="3.712047520566921 0.0 0.0 1.6837603289388907 3.175179734535077 0.0 2.0318241902183636 1.1347995477266983 3.0258737940408205" Properties=species:S:1:pos:R:3:dft_force:R:3 dft_energy=-229.97824531245325 volume=35.66421353619345 dft_virial="-0.011136496727996626 0.2647276874106671 0.33922782520825395 0.2647276874106671 -0.01764697683679913 0.1893560303803919 0.33922782520825395 0.18935603038039192 -0.015009907532309474" id=244 pbc="T T T"
Si       0.00000000       0.00000000       0.00000000       3.57083159       5.01023654       3.74447132
Si       1.89292210       1.09287883       0.77278396      -3.57083141      -5.01023641      -3.74447142
2
Lattice="3.6371095504333795 0.0 0.0 1.7513013020204988 3.2197907167554116 0.0 1.8430932654368974 1.1649045357283834 2.971326815780468" Properties=species:S:1:pos:R:3:dft_force:R:3 dft_energy=-229.91903133151493 volume=34.79641073537731 dft_virial="-0.020153053285555927 0.28147382805404236 0.3219719645896488 0.2814738280540424 -0.014297657503713534 0.2023825322923057 0.3219719645896489 0.2023825322923057 -0.02088757677002383" id=279 pbc="T T T"
Si       0.00000000       0.00000000       0.00000000       2.82674434      -2.23052127       1.88779977
Si       1.83770219       1.06099746       0.75023922      -2.82674392       2.23052139      -1.88779973
2
Lattice="3.548345585810175 0.0 0.0 1.7496043026968364 3.100511764293927 0.0 2.2448321053242575 1.0948845636347782 2.9197448363384177" Properties=species:S:1:pos:R:3:dft_force:R:3 dft_energy=-229.40331749390296 volume=32.12211948834997 dft_virial="-0.0312815206614628 0.32784495901475097 0.4492276021501017 0.32784495901475097 -0.030864463740191413 0.21449656674879578 0.4492276021501017 0.21449656674879586 -0.027833625996011684" id=324 pbc="T T T"
Si       0.00000000       0.00000000       0.00000000       2.13652639      -0.00662364      -1.94054499
Si       1.79778809       1.03795342       0.73394502      -2.13652554       0.00662416       1.94054528
2
Lattice="3.7456905071585407 0.0 0.0 1.9080392395527401 3.135876750199245 0.0 1.7875372875786808 0.8652156551691074 2.8942958464810884" Properties=species:S:1:pos:R:3:dft_force:R:3 dft_energy=-229.72552205313312 volume=33.996467824188926 dft_virial="-0.015110189118807951 0.32169639062930105 0.32548630527852046 0.32169639062930117 -0.0206851493663691 0.15936295407121145 0.32548630527852046 0.15936295407121143 -0.03132224827458301" id=310 pbc="T T T"
Si       0.00000000       0.00000000       0.00000000      -6.85020940      -0.68313809       3.14457939
Si       1.80670477       1.04310188       0.73758525       6.85020944       0.68313813      -3.14457939
2
Lattice="3.6502805451840916 0.0 0.0 1.5529573810702837 3.2123147197349637 0.0 1.9239282332201966 1.2467415031123366 3.065779778136328" Properties=species:S:1:pos:R:3:dft_force:R:3 dft_energy=-229.9647828374536 volume=35.948873585993304 dft_virial="-0.016221489293116228 0.23714628847034872 0.3121852771193666 0.23714628847034872 -0.013879208355797007 0.20145999317295887 0.3121852771193666 0.20145999317295887 -0.008916416390378518" id=264 pbc="T T T"
Si       0.00000000       0.00000000       0.00000000       5.67079615      -0.66292195      -1.00799780
Si       1.86282286       1.07550209       0.76049427      -5.67079607       0.66292192       1.00799778
2
Lattice="3.5618485804285696 0.0 0.0 1.8345982688225706 3.184065730993572 0.0 1.7388663069764547 0.9801236093726493 3.0009888039587103" Properties=species:S:1:pos:R:3:dft_force:R:3 dft_energy=-229.79484802108053 volume=34.034694195700375 dft_virial="-0.028751838324881002 0.3103987639709499 0.30968712049447666 0.3103987639709499 -0.01970528827363558 0.17049484932565787 0.30968712049447666 0.17049484932565778 -0.01818937251469008" id=307 pbc="T T T"
Si       0.00000000       0.00000000       0.00000000       4.83222683      -1.47498517      -1.91685988
Si       1.81625837       1.04861637       0.74148431      -4.83222643       1.47498552       1.91686040
2
Lattice="2.6881159886538795 -0.017403643063794282 -0.0036289385536899233 -1.3750589519715368 2.3323554504419097 -0.04190401329919457 -0.11225888525932595 0.017794082908184846 4.643428789365785" Properties=species:S:1:pos:R:3:dft_force:R:3 dft_energy=-229.28320299443996 volume=29.002575143772173 dft_virial="0.0005183028305969194 -0.0006946858573956678 1.8063486200668386e-05 -0.0006946858573956674 0.00042564787250872074 0.0009113928770353135 1.8063486200668396e-05 0.0009113928770353139 0.0003927206716086255" id=2357 pbc="T T T"
Si       0.04966937      -0.01382510       0.06477044      -0.58778080       0.18387644      -1.13614642
Si       0.15230320       1.52521758       2.30292091       0.58778102      -0.18387653       1.13614421
2
Lattice="2.5790754121118993 0.0976694310739393 -0.04598013167466139 -1.2221746929034156 2.246714214574144 0.11966717230676006 -0.028527768630284406 -0.07793170894039006 4.793336599620167" Properties=species:S:1:pos:R:3:dft_force:R:3 dft_energy=-229.17694947474703 volume=28.36329568347986 dft_virial="-0.006682443379527197 0.002624761942034009 -2.3751193692082037e-05 0.00262476194203401 -0.004863425110165719 0.0004380132995052872 -2.3751193692082027e-05 0.0004380132995052872 -0.0015880418980913603" id=2346 pbc="T T T"
Si       0.04967225      -0.01382707       0.06476930      -0.13435483       0.02130272      -5.29602700
Si       0.15230304       1.52521873       2.30291889       0.13435488      -0.02130278       5.29602209
2
Lattice="2.6480388446265875 -0.12321018089469729 -0.015620703774383075 -1.3179771547214338 2.396568624849809 0.06324429479404528 0.06702818328598005 -0.008996976414263438 4.681490354196384" Properties=species:S:1:pos:R:3:dft_force:R:3 dft_energy=-229.24956102440677 volume=28.952795662035275 dft_virial="-0.000994394496995009 -0.0008523567398502783 6.197467213474654e-05 -0.000852356739850278 -0.0009888939139133213 0.00047157900101994267 6.197467213474643e-05 0.00047157900101994267 0.0002716411463709517" id=2332 pbc="T T T"
Si       0.04967208      -0.01382657       0.06477112      -0.16699955       0.15224330      -3.36273489
Si       0.15230022       1.52521941       2.30291940       0.16699944      -0.15224309       3.36273923
2
Lattice="3.7419845086355625 0.0 0.0 1.811934277855283 3.3347676709314538 0.0 1.8913122462192677 1.1438275441285988 3.0420827875807412" Properties=species:S:1:pos:R:3:dft_force:R:3 dft_energy=-230.1681661842776 volume=37.961083227241325 dft_virial="-0.008074398148685274 0.24989243084361001 0.2867318388500824 0.2498924308436099 -0.0026198281680335942 0.17167445828784292 0.2867318388500824 0.171674458287843 -0.011315774820341965" id=234 pbc="T T T"
Si       0.00000000       0.00000000       0.00000000       4.64019848      -0.55047131       4.68380430
Si       1.91067100       1.10312610       0.78002653      -4.64019938       0.55047128      -4.68380461
