2
Lattice="4.9698425136491275 -0.09043898530387126 0.047950761063010376 -2.5409056215885832 4.50316534972026 -0.07032659236495671 0.29239991218813616 0.12003453416221159 8.905262269247288" Properties=species:S:1:pos:R:3:dft_force:R:3 dft_energy=-8.424949042398937 volume=197.21961943574013 dft_virial="-3.550816175144321e-05 -1.1546452245611244e-05 4.490814185764357e-05 -1.1546452245611248e-05 4.562257762506981e-05 -1.1856537291725974e-05 4.490814185764357e-05 -1.1856537291725976e-05 5.022019815072397e-05" id=2358 pbc="T T T"
Si       0.09386634      -0.02612767       0.12239873      -0.00163486       0.00263272      -0.04293003
Si       0.28781009       2.88224591       4.35188943       0.00163486      -0.00263272       0.04293004
2
Lattice="5.035897058855927 0.17414992199445364 0.023995137618138148 -2.5211421287840583 4.428009203195859 -0.04208344490496605 -0.20360595237301288 -0.08827037339777323 8.625299570651116" Properties=species:S:1:pos:R:3:dft_force:R:3 dft_energy=-8.425808232319659 volume=196.13229643697184 dft_virial="2.8194894154174393e-05 3.4431928983150977e-06 1.0938048302835126e-05 3.443192898315104e-06 7.58798690456658e-05 8.515610195705371e-06 1.093804830283513e-05 8.515610195705373e-06 -1.6619146710700566e-05" id=2374 pbc="T T T"
Si       0.09386551      -0.02612953       0.12239505      -0.00704917       0.00213879      -0.01102368
Si       0.28780999       2.88224642       4.35188977       0.00704918      -0.00213879       0.01102368
4
Lattice="7.373688472603647 0.06179791821381817 -0.04628835009391584 0.22600300529933876 7.512090804546519 0.01886587289532767 0.07144882512132696 -0.0268562774571278 7.449743486256488" Properties=species:S:1:pos:R:3:dft_force:R:3 dft_energy=-16.84346879534871 volume=412.57972829929946 dft_virial="6.6295549882136e-05 3.1669143588469376e-06 1.1264612941073422e-05 3.1669143588469367e-06 5.387093567752047e-05 -2.595733412110838e-06 1.1264612941073418e-05 -2.595733412110838e-06 9.946251899044467e-05" id=2296 pbc="T T T"
Si       0.09386753      -0.02612520       0.12239410       0.04066944      -0.04326016      -0.01844186
Si       3.95215320       3.62009225      -0.04424454      -0.03244506       0.03399086      -0.03349875
Si       3.96277384       0.14502667       3.57562526      -0.02627508      -0.02247906       0.02776643
Si       0.10253059       3.57676873       3.57633625       0.01805070       0.03174830       0.02417427
2
Lattice="5.093914617751953 -0.07349424578136064 -0.04092239717399598 -2.539714319342358 4.502543913284177 0.09103103649871652 -0.03273793663645803 -0.15193210959104855 9.086234801750306" Properties=species:S:1:pos:R:3:dft_force:R:3 dft_energy=-8.423855960854947 volume=206.75087540265392 dft_virial="0.00013206355063468834 -2.0147561409792083e-05 1.0962143664465198e-05 -2.0147561409792097e-05 0.00013420994098088212 -6.089980958137216e-06 1.0962143664465198e-05 -6.089980958137212e-06 6.566822687276502e-05" id=2364 pbc="T T T"
Si       0.09386512      -0.02612609       0.12239253      -0.00645038       0.00188214      -0.06081280
Si       0.28780716       2.88224740       4.35189272       0.00645039      -0.00188214       0.06081301
4
Lattice="7.387084854484687 0.08780495275053914 0.06452872364199237 -0.26822385219082634 7.323522215529387 0.016084214937139782 -0.12751805748560335 0.1269128537969307 7.619215145565033" Properties=species:S:1:pos:R:3:dft_force:R:3 dft_energy=-16.843420203216265 volume=412.41782698278666 dft_virial="8.479102949174491e-05 -1.8144590370169883e-05 6.16663030091329e-08 -1.8144590370169886e-05 8.41256512909922e-05 1.2268510428111412e-05 6.166630300913312e-08 1.2268510428111409e-05 4.1783217747705524e-05" id=2285 pbc="T T T"
Si       0.09386466      -0.02612626       0.12239720       0.02280455      -0.01770613      -0.03646407
Si       3.95215502       3.62009673      -0.04424951      -0.02471825       0.01873081      -0.04753784
Si       3.96277392       0.14502457       3.57562783      -0.03773522      -0.01782615       0.04406551
Si       0.10253059       3.57677160       3.57633320       0.03964908       0.01680135       0.03993622
2
Lattice="5.910323263284483 -0.016937294001579593 -0.18477751495221403 0.017981254301867852 5.732663760828635 -0.05867132854610234 0.07092529539576063 0.03989710736781902 5.896515317950761" Properties=species:S:1:pos:R:3:dft_force:R:3 dft_energy=-8.424245148818859 volume=199.8758162431422 dft_virial="1.6383846373744038e-05 -3.103462545931988e-06 -1.611115040059187e-05 -3.103462545931987e-06 9.958068096337677e-05 4.548914513765657e-06 -1.6111150400591865e-05 4.548914513765657e-06 8.793807915727952e-06" id=2231 pbc="T T T"
Si       0.09386328      -0.02612754       0.12239527       0.01292146       0.00158799      -0.00708344
Si       3.20508829       2.87303068       2.87303769      -0.01292147      -0.00158798       0.00708345
4
Lattice="7.6305007411593895 -0.08685408035914995 -0.07918171670412434 0.18069166250911567 7.482205296111616 -0.017077643960855548 0.031461086488570884 -0.26060260562747184 7.488480358475571" Properties=species:S:1:pos:R:3:dft_force:R:3 dft_energy=-16.84217330685672 volume=427.6455852153688 dft_virial="0.000166285568333093 -8.611005133694755e-06 -1.1701330405448017e-05 -8.611005133694759e-06 0.00014372564368974027 -2.422249045118083e-05 -1.170133040544802e-05 -2.422249045118083e-05 0.0001619794538897143" id=2280 pbc="T T T"
Si       0.09386404      -0.02613041       0.12239384       0.01068890      -0.05279884      -0.01766901
Si       3.95215753       3.62009858      -0.04424792      -0.00643139       0.02099907      -0.02167869
Si       3.96277014       0.14502144       3.57562253       0.00051162      -0.00586329       0.02009217
Si       0.10252705       3.57676998       3.57632954      -0.00476913       0.03766285       0.01925568
2
Lattice="5.809922265461206 0.2386125619138679 0.15935973481567386 0.022344405156493802 5.8467569015687175 -0.043784538567831675 -0.05598485609281185 0.07054895643804142 5.845403347437432" Properties=species:S:1:pos:R:3:dft_force:R:3 dft_energy=-8.422166291317955 volume=198.60347374211972 dft_virial="-2.4173966594957375e-05 5.185627443109466e-05 6.116792423557248e-05 5.1856274431094677e-05 -4.327256881867182e-05 -4.8474697137960915e-05 6.116792423557251e-05 -4.847469713796093e-05 -5.526936120637422e-05" id=2234 pbc="T T T"
Si       0.09386636      -0.02612904       0.12239527       0.04303105      -0.03899016      -0.04226623
Si       3.20508791       2.87303130       2.87303444      -0.04303105       0.03899016       0.04226624
2
Lattice="5.016791549790735 -0.1654646084448449 0.014183244942072487 -2.4928356754988927 4.593779758300281 0.009118778928075423 0.003769077652827345 -0.14958573114840695 9.134443434840284" Properties=species:S:1:pos:R:3:dft_force:R:3 dft_energy=-8.423208385278906 volume=206.75684868238835 dft_virial="7.152689763302724e-05 1.1001741592522871e-05 1.7965952115741112e-05 1.1001741592522885e-05 0.00015283698409680724 -2.1923702512470885e-05 1.796595211574111e-05 -2.1923702512470875e-05 0.0001002170279133366" id=2372 pbc="T T T"
Si       0.09386714      -0.02612849       0.12239958      -0.00585332       0.00087046      -0.06053979
Si       0.28780746       2.88224695       4.35189345       0.00585332      -0.00087046       0.06053963
2
Lattice="5.865708152290356 -0.07081648496550469 0.08506683408226264 -0.0018432010674374836 5.879470744197087 -0.16885974709213128 0.03979481649269302 -0.27334079589930427 5.949250827766802" Properties=species:S:1:pos:R:3:dft_force:R:3 dft_energy=-8.423198752640088 volume=204.88245672533947 dft_virial="6.353853598181679e-05 8.365509679196871e-06 1.4673165906238505e-06 8.365509679196875e-06 8.383646405397266e-05 -1.3240751561372676e-05 1.4673165906238507e-06 -1.3240751561372673e-05 6.984039521814819e-05" id=2278 pbc="T T T"
Si       0.09386563      -0.02612605       0.12239282       0.02232676       0.00356629      -0.01703368
Si       3.20509089       2.87303192       2.87303614      -0.02232676      -0.00356628       0.01703369
2
Lattice="5.856756727507878 0.08904425404032996 0.24325149939912172 0.03571646626230943 5.624061521699834 -0.0547951412165312 -0.20015196765420562 -0.06560197469721234 5.732677347959473" Properties=species:S:1:pos:R:3:dft_force:R:3 dft_energy=-8.422029704561062 volume=189.0622260022972 dft_virial="-0.0002442024794256387 1.4954023334277595e-06 7.231526401864226e-05 1.4954023334277593e-06 -0.0001724352806809384 -2.531639235117447e-05 7.231526401864226e-05 -2.531639235117447e-05 -0.0002018171855900479" id=2274 pbc="T T T"
Si       0.09386442      -0.02612877       0.12239709       0.06026230       0.00017857      -0.04571769
Si       3.20508940       2.87303117       2.87303532      -0.06026229      -0.00017857       0.04571769
2
Lattice="5.903721221609184 0.032222797294885044 -0.0566521561819397 -0.11124061805222059 5.727321297204445 0.06150463271927625 -0.17948280470719255 0.02427124550220722 5.905469577322426" Properties=species:S:1:pos:R:3:dft_force:R:3 dft_energy=-8.423147272237463 volume=199.63265537574344 dft_virial="-1.3076992246606892e-05 5.411509656635811e-06 8.177017251597496e-06 5.411509656635809e-06 2.2406509777351813e-05 2.3742241556375635e-06 8.177017251597496e-06 2.3742241556375644e-06 -3.359803233198623e-05" id=2241 pbc="T T T"
Si       0.09386309      -0.02612667       0.12239578       0.03916751       0.00481798      -0.02169563
Si       3.20509008       2.87303132       2.87303459      -0.03916751      -0.00481798       0.02169563
2
Lattice="6.060112801395431 -0.07709147174041453 0.21520100951753665 -0.1046096257726925 5.895552313517652 0.13927704837143842 0.07024327434012195 -0.0002148807576311963 5.914019756556864" Properties=species:S:1:pos:R:3:dft_force:R:3 dft_energy=-8.421920671315021 volume=211.1570135589744 dft_virial="7.229379508706484e-05 -3.265173115721165e-05 7.00184243487047e-06 -3.265173115721166e-05 0.00010231568368244148 -2.9255508431485678e-05 7.00184243487047e-06 -2.925550843148567e-05 0.00022026164237278178" id=2253 pbc="T T T"
Si       0.09386321      -0.02612465       0.12239505       0.02891606       0.00978008      -0.02960161
Si       3.20509080       2.87303234       2.87303468      -0.02891605      -0.00978008       0.02960161
2
Lattice="5.9890203597239475 0.08723559716645064 0.13271028788288636 -0.12875221872033518 5.676503065719928 0.03899542454745383 0.034537900770164075 -0.11541555218483382 6.100969417203029" Properties=species:S:1:pos:R:3:dft_force:R:3 dft_energy=-8.422131006296723 volume=207.48433131608974 dft_virial="3.30476625436911e-05 -1.5100132689856628e-05 6.033756254567812e-05 -1.5100132689856633e-05 0.00010086722100068761 1.2726279373448212e-05 6.033756254567816e-05 1.2726279373448217e-05 9.368876893710168e-05" id=2230 pbc="T T T"
Si       0.09386202      -0.02612900       0.12239754       0.03709333       0.00292324      -0.05675830
Si       3.20509246       2.87303100       2.87303676      -0.03709332      -0.00292324       0.05675831
2
Lattice="5.055476681308526 -0.019350304187375485 0.1825662519274832 -2.5215333398863784 4.424816284141169 -0.07324342243283907 0.08940940581939141 -0.06322010719795028 8.588394013122146" Properties=species:S:1:pos:R:3:dft_force:R:3 dft_energy=-8.425413289546434 volume=191.6331020659112 dft_virial="-2.7551814098493592e-05 -3.892396087575444e-07 4.927973239660582e-05 -3.892396087575451e-07 -2.6009640849698145e-06 -3.300588185172807e-06 4.927973239660582e-05 -3.3005881851728083e-06 -9.203001677757012e-05" id=2360 pbc="T T T"
Si       0.09386478      -0.02612875       0.12239981      -0.00229733      -0.00091081      -0.02791485
Si       0.28780695       2.88224695       4.35189521       0.00229733       0.00091081       0.02791486
4
Lattice="7.511220717946958 -0.1872151482694138 -0.03973088705789694 -0.11105455561798994 7.433619662659776 0.18464359006176181 0.18735680213971576 -0.11143811332950522 7.409061443348283" Properties=species:S:1:pos:R:3:dft_force:R:3 dft_energy=-16.844324583284003 volume=413.7379574720906 dft_virial="7.6333360268542e-05 -1.789839581300817e-05 -6.480248829988036e-06 -1.7898395813008177e-05 7.354551886282643e-05 -1.1102846606014464e-05 -6.480248829988038e-06 -1.1102846606014464e-05 0.0001047709692483028" id=2286 pbc="T T T"
Si       0.09386249      -0.02612822       0.12239499       0.01484066      -0.03678537      -0.00910924
Si       3.95215598       3.62009811      -0.04424361      -0.00844517       0.03299344      -0.03449330
Si       3.96277095       0.14502291       3.57562471      -0.03745117      -0.02003630       0.02739339
Si       0.10252839       3.57677200       3.57632980       0.03105576       0.02382823       0.01620931
2
Lattice="5.86765016713685 -0.23981784813341545 0.14971045307263225 -0.2920483853344333 5.833150949060457 -0.13738303256850976 -0.1328047174973339 -0.12352039856074126 5.57270974494129" Properties=species:S:1:pos:R:3:dft_force:R:3 dft_energy=-8.41886421188276 volume=190.36364451150607 dft_virial="-0.00016180756768867195 -0.00017264204186173067 -2.0780420526331037e-05 -0.0001726420418617307 -0.0003061825602412752 -3.609561567604086e-05 -2.078042052633104e-05 -3.609561567604086e-05 -0.00029786798084952237" id=2264 pbc="T T T"
Si       0.09386264      -0.02612554       0.12239335       0.09735218       0.08271785       0.00538755
Si       3.20509008       2.87303206       2.87303497      -0.09735218      -0.08271786      -0.00538756
2
Lattice="5.997724759507415 0.18167182565543655 0.025974984781647323 -0.02071973201810804 5.778029300964113 0.06276967207888448 0.08352164282467864 -0.0283072658673992 5.530485515440039" Properties=species:S:1:pos:R:3:dft_force:R:3 dft_energy=-8.424608735077618 volume=191.67904531361842 dft_virial="-0.0001094432577506403 3.3311085010011705e-05 9.541379365571318e-06 3.3311085010011705e-05 -0.0001761268096648706 3.603372253552979e-06 9.541379365571321e-06 3.6033722535529792e-06 -2.062627128570994e-05" id=2247 pbc="T T T"
Si       0.09386364      -0.02612535       0.12239750       0.02261284      -0.01488673      -0.00628210
Si       3.20508991       2.87302981       2.87303408      -0.02261283       0.01488673       0.00628210
2
Lattice="5.068793430130673 0.05605454919228805 0.12925700236274523 -2.5265683450700926 4.2785143111822626 0.022382502035166257 -0.10147043163172542 0.08370951939598892 9.006848446604145" Properties=species:S:1:pos:R:3:dft_force:R:3 dft_energy=-8.424366639397435 volume=196.62542351963427 dft_virial="1.588076994496484e-05 2.4864826271761147e-05 3.139550068429572e-05 2.4864826271761147e-05 -6.581767990514707e-05 1.8683007403497354e-05 3.1395500684295734e-05 1.868300740349736e-05 -2.782182345163282e-05" id=2363 pbc="T T T"
Si       0.09386362      -0.02612871       0.12239633      -0.00560939       0.00452303      -0.07821079
Si       0.28780986       2.88224630       4.35189224       0.00560940      -0.00452303       0.07821057
2
Lattice="5.797612570588132 -0.22476551814662757 -0.06659827610463753 -0.28424013147378585 5.759580112679265 -0.03191707740244308 -0.263358884563806 0.08119571121870549 5.91275796752619" Properties=species:S:1:pos:R:3:dft_force:R:3 dft_energy=-8.420987151041658 volume=196.97361774202048 dft_virial="3.591535853024628e-05 -0.00010409850172790527 3.617547248579632e-05 -0.00010409850172790527 -0.00015135041972335047 -1.2060396734790834e-05 3.617547248579632e-05 -1.2060396734790834e-05 -0.00028763377553652815" id=2259 pbc="T T T"
Si       0.09386629      -0.02612924       0.12239276       0.06520025       0.05141787      -0.01865459
Si       3.20508984       2.87303122       2.87303682      -0.06520026      -0.05141787       0.01865459
2
Lattice="5.023228013662994 -0.022841875558801534 0.09128873845033172 -2.4910819718607176 4.337492436764698 0.08266461423263836 -0.06015873197879529 -0.08594429061371012 8.754986712474347" Properties=species:S:1:pos:R:3:dft_force:R:3 dft_energy=-8.424816389595996 volume=190.33651894744193 dft_virial="-8.870497966001557e-05 1.3123796102127119e-05 6.850060406827601e-06 1.3123796102127119e-05 -9.981660959767309e-05 1.993642156735929e-06 6.850060406827599e-06 1.9936421567359292e-06 -8.813956801269348e-05" id=2340 pbc="T T T"
Si       0.09386298      -0.02612571       0.12239299      -0.00634171       0.00306797      -0.07363676
Si       0.28780960       2.88224727       4.35189330       0.00634171      -0.00306798       0.07363676
2
Lattice="4.992602488477688 0.03817934632053419 -0.10984656709008415 -2.4458673830480757 4.4708064732471415 0.05100041998019269 0.068331740776018 -0.12499349676667079 8.717359128387681" Properties=species:S:1:pos:R:3:dft_force:R:3 dft_energy=-8.42549290969544 volume=195.42579674417314 dft_virial="-3.728084453979907e-05 -2.9994617690666947e-05 1.6515888470752566e-05 -2.999461769066694e-05 3.38296921670642e-05 1.3458768197647484e-05 1.651588847075257e-05 1.3458768197647486e-05 3.968079332582505e-05" id=2342 pbc="T T T"
Si       0.09386583      -0.02612514       0.12239480      -0.00350438       0.00105953      -0.02754706
Si       0.28780773       2.88224500       4.35189141       0.00350439      -0.00105953       0.02754708
4
Lattice="7.3758600324825 0.17260741414796663 -0.1145488670922967 -0.0280593337998483 7.521984465671997 -0.04028433114801609 0.052551752847681724 -0.12720035672953126 7.199372424785578" Properties=species:S:1:pos:R:3:dft_force:R:3 dft_energy=-16.844670094162353 volume=399.47071372181284 dft_virial="1.2822457661520592e-05 9.430863593675724e-07 -1.8586302638520596e-05 9.430863593675729e-07 -2.2460471469248992e-05 -3.4097408143402785e-05 -1.8586302638520602e-05 -3.4097408143402785e-05 3.952322086129272e-05" id=2281 pbc="T T T"
Si       0.09386245      -0.02612875       0.12239732       0.03821063      -0.04630717      -0.00962578
Si       3.95215256       3.62009478      -0.04424497      -0.03427413       0.03883834      -0.01114118
Si       3.96277280       0.14502047       3.57562461      -0.03505550      -0.03555485       0.00800240
Si       0.10253144       3.57677204       3.57632963       0.03111891       0.04302369       0.01276454
2
Lattice="5.881108116295031 0.08119028770472782 0.1858193398619815 0.045715328441145564 5.537476859594272 -0.09270410552315395 -0.10311343511352004 0.13848468620738286 5.872460332706257" Properties=species:S:1:pos:R:3:dft_force:R:3 dft_energy=-8.423049583815187 volume=191.40723897535807 dft_virial="-0.00019577767251154277 -7.4076747813860456e-06 6.872844984310723e-05 -7.407674781386048e-06 -0.00010139391291120335 2.042768644394644e-05 6.872844984310726e-05 2.042768644394644e-05 -0.00014037560879829838" id=2258 pbc="T T T"
Si       0.09386657      -0.02612601       0.12239303       0.04882061      -0.00026775      -0.05374965
Si       3.20509293       2.87303255       2.87303759      -0.04882059       0.00026775       0.05374966
4
Lattice="7.4363899822612165 -0.1916984668083047 -0.011490649776138213 -0.05794510679640865 7.373280235068944 -0.21485422587640657 -0.14034200352897128 -0.17031230397508615 7.321098622877294" Properties=species:S:1:pos:R:3:dft_force:R:3 dft_energy=-16.84507220953198 volume=401.0489155745682 dft_virial="-1.4904037604543079e-06 -2.3033902629807142e-05 1.1437441592019838e-05 -2.3033902629807142e-05 9.531052990513218e-06 -1.9880401851936045e-05 1.1437441592019837e-05 -1.988040185193604e-05 3.527579002507745e-05" id=2313 pbc="T T T"
Si       0.09386702      -0.02612728       0.12239835       0.01444932      -0.04664713      -0.02458161
Si       3.95215474       3.62009781      -0.04424544      -0.02665160       0.02528199      -0.01496614
Si       3.96277224       0.14502461       3.57562329      -0.02696200      -0.01796787       0.01358480
Si       0.10253006       3.57677173       3.57633655       0.03916423       0.03933291       0.02596302
2
Lattice="5.039405996810438 0.20531989617352595 -0.04382280552185535 -2.3894826609072926 4.408648732281932 -0.20330656306308842 -0.3041513819639952 0.17137143877615513 8.978629260871417" Properties=species:S:1:pos:R:3:dft_force:R:3 dft_energy=-8.424929292398291 volume=204.0303918667666 dft_virial="9.564334409446217e-05 2.1151374288897782e-05 -1.2341206815794043e-05 2.115137428889779e-05 8.30410389564676e-05 1.5483577403273232e-05 -1.2341206815794041e-05 1.5483577403273225e-05 0.00016962096179631362" id=2351 pbc="T T T"
Si       0.09386561      -0.02612943       0.12239482      -0.00466368       0.00453402      -0.01218569
Si       0.28781026       2.88224738       4.35188881       0.00466368      -0.00453402       0.01218568
2
Lattice="5.8182378729917925 0.2088982437685948 0.1064974432739324 -0.023274018128980955 5.789089603409891 -0.034066111745890006 -0.04850743658480263 -0.09025696688354731 5.81044515267989" Properties=species:S:1:pos:R:3:dft_force:R:3 dft_energy=-8.422769434600077 volume=195.74999430246376 dft_virial="-4.29744344711766e-05 1.2482433713586948e-05 3.0907659527375313e-05 1.2482433713586945e-05 -6.42178766829402e-05 -2.1472822478895602e-05 3.09076595273753e-05 -2.1472822478895595e-05 -9.330167307380621e-05" id=2269 pbc="T T T"
Si       0.09386689      -0.02612970       0.12239431       0.04208232      -0.02264004      -0.03716667
Si       3.20509176       2.87303398       2.87303389      -0.04208233       0.02264004       0.03716667
4
Lattice="7.26075190094362 0.05964461308932959 -0.014087813772778885 -0.005758316755175908 7.445082457872838 -0.23068294984149695 0.13968946220087675 -0.03383618876830678 7.102962018311456" Properties=species:S:1:pos:R:3:dft_force:R:3 dft_energy=-16.843683841996285 volume=383.92257625448417 dft_virial="-7.295757825547779e-05 -3.106809460736351e-05 3.6545956565776306e-05 -3.106809460736352e-05 -0.0001593691318092215 1.2186871500400208e-05 3.6545956565776306e-05 1.2186871500400207e-05 -8.681845000276181e-05" id=2326 pbc="T T T"
Si       0.09386406      -0.02612482       0.12239631       0.06008786      -0.04714497      -0.01279660
Si       3.95215683       3.62009238      -0.04424735      -0.06033263       0.04598401       0.01662122
Si       3.96276882       0.14502586       3.57562442      -0.06209101      -0.04553286      -0.00122237
Si       0.10252732       3.57677090       3.57633402       0.06233579       0.04669383      -0.00260225
2
Lattice="5.8664147964773985 0.007975286752803123 0.10040717722770472 0.0985043553010353 5.784526784092936 -0.03498850596458109 -0.09748972355020122 0.16773662616448248 6.010822696941592" Properties=species:S:1:pos:R:3:dft_force:R:3 dft_energy=-8.42297254652009 volume=204.0618792395246 dft_virial="6.23274132006531e-05 -8.739041194740294e-06 3.905018525854604e-05 -8.739041194740294e-06 0.00010728068323445873 -4.062503602598296e-06 3.905018525854604e-05 -4.062503602598296e-06 2.783844346229775e-05" id=2233 pbc="T T T"
Si       0.09386665      -0.02612715       0.12239295       0.02274577      -0.00526364      -0.04018890
Si       3.20508802       2.87302930       2.87303459      -0.02274578       0.00526364       0.04018889
2
Lattice="5.254675244338335 0.10091685526077755 -0.06874235936563794 -2.674383837476734 4.172357377658726 -0.020585485874214625 0.03794570058248547 -0.22046482274042048 8.374370756514521" Properties=species:S:1:pos:R:3:dft_force:R:3 dft_energy=-8.424694774519866 volume=185.80950033544744 dft_virial="-0.0001315424973054102 1.1028224866732782e-05 -1.1395798654331769e-05 1.1028224866732778e-05 -0.00012543700826578243 -4.126891038584213e-05 -1.1395798654331769e-05 -4.1268910385842143e-05 -0.00020943083716716624" id=2359 pbc="T T T"
Si       0.09386755      -0.02612887       0.12239983      -0.00482874       0.00231243       0.04170409
Si       0.28781009       2.88224430       4.35188794       0.00482874      -0.00231243      -0.04170409
2
Lattice="5.10305236953032 -0.02540872834840321 0.06819254354967806 -2.55422129326684 4.501214150804801 0.012288170892514026 0.1252966655288445 -0.2916212127439616 8.812456099616142" Properties=species:S:1:pos:R:3:dft_force:R:3 dft_energy=-8.42478297047806 volume=201.88017131619543 dft_virial="7.530041895617711e-05 1.1456912278321621e-05 1.1563390375101157e-05 1.1456912278321614e-05 0.0001303411326281198 2.5614067129677173e-06 1.1563390375101154e-05 2.561406712967716e-06 5.75547014968984e-05" id=2339 pbc="T T T"
Si       0.09386436      -0.02612835       0.12239890      -0.00133625      -0.00214402      -0.04636244
Si       0.28780975       2.88224800       4.35188941       0.00133625       0.00214402       0.04636244
2
Lattice="4.95330238338716 0.038338952589020085 0.02217655968210454 -2.5450800454951428 4.255079288387464 0.0295951709131154 -0.04164576543724148 -0.08996143261491708 8.943502426954513" Properties=species:S:1:pos:R:3:dft_force:R:3 dft_energy=-8.424376232026063 volume=189.39428376598164 dft_virial="-0.0001567917219664442 -1.703047112658113e-05 1.9364586335860384e-05 -1.7030471126581132e-05 -0.00018388880588871066 1.2407696398996693e-05 1.9364586335860377e-05 1.2407696398996688e-05 -4.6907313538719114e-05" id=2331 pbc="T T T"
Si       0.09386221      -0.02612580       0.12239896      -0.00914279       0.00067788      -0.07028750
Si       0.28780733       2.88224560       4.35189404       0.00914280      -0.00067789       0.07028764
2
Lattice="5.111367939266385 0.10807916293750541 0.03883445767615821 -2.555265537026047 4.274532639340415 -0.14543281232514563 -0.13887389420001076 -0.0809030871283072 8.7871319932036" Properties=species:S:1:pos:R:3:dft_force:R:3 dft_energy=-8.425705408522582 volume=194.38736515894334 dft_virial="5.779702687424913e-06 5.129404811913386e-05 -6.593950988176246e-07 5.1294048119133834e-05 -4.583628833143982e-05 -1.841796895954959e-05 -6.593950988176255e-07 -1.8417968959549597e-05 2.6018735019093865e-05" id=2375 pbc="T T T"
Si       0.09386627      -0.02612834       0.12239949      -0.00897324       0.00271932      -0.01651900
Si       0.28780661       2.88224698       4.35188744       0.00897324      -0.00271931       0.01651901
2
Lattice="5.7243899162454035 -0.07451392310094747 -0.043263370999921134 -0.251026664155327 5.782880076747937 0.10486362386110346 -0.08873405549697265 -0.016453278449279192 5.605899080457137" Properties=species:S:1:pos:R:3:dft_force:R:3 dft_energy=-8.419680640455281 volume=185.45799111199676 dft_virial="-0.000214721576136251 -7.709258791675498e-05 -2.495820245833504e-05 -7.709258791675498e-05 -0.0004291776855618853 2.2416429185312893e-05 -2.495820245833504e-05 2.2416429185312893e-05 -0.0003382894998723334" id=2249 pbc="T T T"
Si       0.09386498      -0.02612703       0.12239304       0.08671265       0.04493664      -0.01289481
Si       3.20508940       2.87303385       2.87303844      -0.08671265      -0.04493663       0.01289482
4
Lattice="7.263043401739602 -0.1845944760797828 0.16953609896939612 -0.1053549715507674 7.441140829327571 -0.03886321930777501 -0.040861831451701726 0.03776330421693659 7.02507506635888" Properties=species:S:1:pos:R:3:dft_force:R:3 dft_energy=-16.842960119576027 volume=379.59710907640357 dft_virial="-0.00017814770878094125 -1.9564337198605512e-05 5.113310860332015e-05 -1.956433719860552e-05 -0.00018852802671129838 -4.387788166242296e-05 5.113310860332015e-05 -4.387788166242295e-05 -0.0001247931495758176" id=2306 pbc="T T T"
Si       0.09386292      -0.02612630       0.12239913       0.07058363      -0.04136651      -0.00002802
Si       3.95215710       3.62009348      -0.04424924      -0.07447999       0.04035231       0.01253060
Si       3.96276986       0.14502357       3.57562244      -0.09271122      -0.05435099       0.00232271
Si       0.10253081       3.57677243       3.57633634       0.09660750       0.05536514      -0.01482533
4
Lattice="7.307942462981216 -0.11266898644078022 -0.07791665844725486 0.14750930008266816 7.302671468799059 0.0016851632716350304 0.017769264825207333 0.034174714306272246 7.539381832395878" Properties=species:S:1:pos:R:3:dft_force:R:3 dft_energy=-16.84401192116987 volume=402.4925780804741 dft_virial="-1.4015544122610861e-06 -2.1634256233502284e-05 -3.2739173059512363e-06 -2.163425623350229e-05 1.3174971450362425e-05 -2.6902784624431193e-06 -3.2739173059512363e-06 -2.6902784624431184e-06 1.4385346419004177e-05" id=2287 pbc="T T T"
Si       0.09386351      -0.02612917       0.12239567       0.04395427      -0.02932982      -0.03190331
Si       3.95215084       3.62009372      -0.04424297      -0.04404694       0.02488961      -0.04353876
Si       3.96277263       0.14501972       3.57562170      -0.04619829      -0.02246638       0.03848524
Si       0.10252787       3.57677315       3.57633317       0.04629100       0.02690656       0.03695693
2
Lattice="5.794279925183788 -0.04426808168860092 0.11754419638339601 -0.07650085673742399 5.844771933247411 -0.09861615149856816 0.0490542288389631 0.04799318541450822 5.78069570452596" Properties=species:S:1:pos:R:3:dft_force:R:3 dft_energy=-8.4232452212819 volume=195.74438371848157 dft_virial="-1.895942137141399e-05 -7.160729271336595e-06 1.0457316811305996e-05 -7.160729271336595e-06 -0.00013820843790475945 -1.1947866005459884e-05 1.0457316811305996e-05 -1.1947866005459884e-05 -1.1659676693834518e-05" id=2248 pbc="T T T"
Si       0.09386457      -0.02612820       0.12239304       0.03506518      -0.00068849      -0.02753122
Si       3.20508927       2.87303385       2.87303644      -0.03506517       0.00068849       0.02753122
2
Lattice="5.891809956592226 0.12452204789309916 -0.31265416686722636 -0.03137901568297839 5.812984661132468 0.03349129485330134 0.053914131999969424 0.1747966240688231 5.705408127549591" Properties=species:S:1:pos:R:3:dft_force:R:3 dft_energy=-8.423398695727679 volume=195.49225586548624 dft_virial="-0.00012298330387823734 5.625684134598084e-05 -5.348365942927348e-05 5.625684134598088e-05 -5.52616842021506e-05 5.4922821860478165e-05 -5.348365942927349e-05 5.492282186047814e-05 -1.4089279002659382e-05" id=2270 pbc="T T T"
Si       0.09386702      -0.02612828       0.12239499       0.03210746      -0.02937964       0.01634669
Si       3.20509137       2.87303037       2.87303720      -0.03210746       0.02937964      -0.01634669
2
Lattice="5.113416270104651 -0.11973225357131645 -0.03954584507577358 -2.413714014291009 4.3779449913323285 0.026670498481815838 -0.10414063354308288 -0.06573230910802778 8.66488971090725" Properties=species:S:1:pos:R:3:dft_force:R:3 dft_energy=-8.425566837689841 volume=191.45527664287965 dft_virial="-3.6542467709626965e-05 1.5313884441441492e-05 -6.144309725009375e-06 1.53138844414415e-05 -5.813306508257533e-05 4.852138906978512e-06 -6.144309725009375e-06 4.852138906978509e-06 -3.1779269279420866e-05" id=2370 pbc="T T T"
Si       0.09386402      -0.02612665       0.12239151      -0.00534626       0.00094390      -0.02503325
Si       0.28780952       2.88224780       4.35189124       0.00534626      -0.00094390       0.02503327
4
Lattice="7.466819637333706 -0.34404648622212214 -0.08204334787190638 -0.2567954877877558 7.095149663745119 -0.06310379455497955 0.29141459008949505 0.13015439550480754 7.542053659471703" Properties=species:S:1:pos:R:3:dft_force:R:3 dft_energy=-16.843783075983996 volume=399.1381422703754 dft_virial="-5.113136014997705e-05 -0.00010844703019742571 -1.844197930095156e-05 -0.00010844703019742566 -5.927824073824368e-06 -8.512544919333872e-07 -1.844197930095156e-05 -8.512544919333874e-07 2.392530376038192e-06" id=2319 pbc="T T T"
Si       0.09386158      -0.02612747       0.12239235       0.08173877       0.03012498      -0.03829458
Si       3.95215166       3.62009399      -0.04424932      -0.06479712      -0.01772765      -0.04887059
Si       3.96277246       0.14502180       3.57562223      -0.06484338       0.00054511       0.04236481
Si       0.10252654       3.57676924       3.57633524       0.04790179      -0.01294235       0.04480001
2
Lattice="5.573986935239879 0.12984066317359716 -0.09511212683198082 0.06307102670397856 6.1135821863519695 0.1700481013656022 0.1022622268779436 0.044838098676833034 5.702009247244578" Properties=species:S:1:pos:R:3:dft_force:R:3 dft_energy=-8.422669339542267 volume=194.2797818967946 dft_virial="-9.58796094497111e-05 5.795008767723087e-05 2.466396103932969e-06 5.795008767723087e-05 -9.125671854238282e-05 -1.8478349185846597e-05 2.4663961039329693e-06 -1.8478349185846597e-05 -0.0001338655530448499" id=2267 pbc="T T T"
Si       0.09386226      -0.02612486       0.12239497       0.03683690      -0.06494018      -0.00950300
Si       3.20508900       2.87303408       2.87303555      -0.03683691       0.06494019       0.00950301
4
Lattice="7.24105443516989 0.1041700187843208 0.16046444981086885 0.1042187170265524 7.2244952375713245 -0.23427620737568913 0.2182792410937233 -0.2712831865057667 7.415602503561541" Properties=species:S:1:pos:R:3:dft_force:R:3 dft_energy=-16.843909298254 volume=387.12851823649 dft_virial="-6.737936790955168e-05 -1.130778368108799e-05 3.0491273645156393e-05 -1.1307783681087996e-05 -4.384398142146011e-05 -1.7780159999426766e-05 3.04912736451564e-05 -1.7780159999426762e-05 -0.0001864208593324444" id=2288 pbc="T T T"
Si       0.09386141      -0.02612556       0.12239282       0.08231764      -0.02802334      -0.04747274
Si       3.95215695       3.62009395      -0.04424531      -0.05541426       0.00535559      -0.01643181
Si       3.96277243       0.14502380       3.57562633      -0.07939753      -0.00645621       0.03976023
Si       0.10253104       3.57676684       3.57633502       0.05249418       0.02912391       0.02414434
2
Lattice="5.074595720812769 0.01670935523642723 0.047026118070230986 -2.529468092013808 4.505680688575705 0.07338677705665318 -0.2944636442943175 0.012997233928996106 8.682115679471627" Properties=species:S:1:pos:R:3:dft_force:R:3 dft_energy=-8.425385549692372 volume=198.9349042385384 dft_virial="6.70345185913629e-05 -6.8005845639668404e-06 1.4884701340570414e-06 -6.800584563966845e-06 5.892481518262763e-05 2.0445239507979498e-05 1.4884701340570437e-06 2.0445239507979498e-05 3.562647317253019e-05" id=2366 pbc="T T T"
Si       0.09386529      -0.02612722       0.12239879      -0.00708462       0.00443620      -0.04107002
Si       0.28780818       2.88224681       4.35189296       0.00708461      -0.00443620       0.04107000
2
Lattice="5.318382409547646 -0.029316341823426868 -0.21013803638717804 -2.7027292569145893 4.385975382498926 0.12365900997198256 0.13335358845023146 0.0335775608508905 8.634934244811213" Properties=species:S:1:pos:R:3:dft_force:R:3 dft_energy=-8.42501493551634 volume=200.8562468073193 dft_virial="6.623973498720097e-05 -3.827163730642316e-05 -1.4161594793091755e-05 -3.8271637306423136e-05 0.0001298672130914552 6.147423896780824e-07 -1.416159479309175e-05 6.14742389678081e-07 6.641931417313616e-05" id=2355 pbc="T T T"
Si       0.09386500      -0.02612902       0.12239790      -0.00475979       0.00328597      -0.02324934
Si       0.28781015       2.88224538       4.35189130       0.00475978      -0.00328597       0.02324934
2
Lattice="5.69918422007183 -0.008674239754518457 -0.14651243175740555 0.11360691420821574 5.94468895331291 0.12037134004940364 0.045717029194657734 -0.22993136796721078 5.9069220586163365" Properties=species:S:1:pos:R:3:dft_force:R:3 dft_energy=-8.424265623913492 volume=200.33295139438525 dft_virial="9.010840768226963e-05 -9.834661865007185e-06 -2.1539312114802656e-06 -9.83466186500719e-06 -2.343750272797353e-05 -1.8446559620325624e-05 -2.153931211480265e-06 -1.8446559620325617e-05 -4.0609798054500134e-06" id=2239 pbc="T T T"
Si       0.09386708      -0.02612592       0.12239484       0.01359983       0.00134623      -0.02583184
Si       3.20508995       2.87302975       2.87303300      -0.01359984      -0.00134622       0.02583184
2
Lattice="5.769985813995473 -0.21128887959707512 0.13743819367408758 0.05166567916510595 5.609942773110395 -0.13562736361516492 0.10624714904872572 -0.13688703615257922 5.838997704998265" Properties=species:S:1:pos:R:3:dft_force:R:3 dft_energy=-8.42194653244258 volume=188.8809825701608 dft_virial="-0.0002397999707972393 -5.966207508983806e-05 9.788827544674166e-05 -5.9662075089838074e-05 -0.00014011379949590988 6.489609287372923e-06 9.788827544674169e-05 6.489609287372922e-06 -0.0002812798228046157" id=2276 pbc="T T T"
Si       0.09386444      -0.02612544       0.12239352       0.04176953       0.03830118      -0.03696900
Si       3.20509091       2.87303081       2.87303498      -0.04176952      -0.03830118       0.03696901
2
Lattice="5.004070178081412 -0.23283359045214982 -0.029518863772203013 -2.4906168535696636 4.52886014480941 0.1195144437381921 0.1266649595239023 -0.017001828148735562 8.846738150366294" Properties=species:S:1:pos:R:3:dft_force:R:3 dft_energy=-8.424723071182648 volume=195.38338329063822 dft_virial="-3.507228655951818e-05 -3.1252822408747655e-05 2.248226174752671e-06 -3.125282240874764e-05 -3.4947303507292604e-05 1.7319370640965806e-05 2.2482261747526673e-06 1.7319370640965806e-05 1.1192098607324014e-05" id=2332 pbc="T T T"
Si       0.09386667      -0.02612845       0.12239973      -0.00325427       0.00295754      -0.06541340
Si       0.28780582       2.88224812       4.35188869       0.00325426      -0.00295754       0.06541338
4
Lattice="7.4209376161511065 0.15752069114571057 0.13501452543294878 0.19004372812727616 7.4910392177236655 0.22297401998595984 -0.24265593331368465 -0.00717462869106043 7.457474639291251" Properties=species:S:1:pos:R:3:dft_force:R:3 dft_energy=-16.843867669340625 volume=414.59034398754045 dft_virial="8.328312607561658e-05 1.772424224682553e-05 2.6383288145027977e-05 1.772424224682553e-05 5.6767558365668474e-05 2.237025223136443e-06 2.6383288145027977e-05 2.237025223136443e-06 0.00010851744861565788" id=2312 pbc="T T T"
Si       0.09386353      -0.02612431       0.12239372       0.03404919      -0.03491664      -0.01317362
Si       3.95215094       3.62009257      -0.04424442      -0.03957785       0.03743149      -0.05046115
Si       3.96277088       0.14502371       3.57562671      -0.01328651      -0.02386778       0.03942489
Si       0.10252537       3.57676686       3.57633549       0.01881512       0.02135274       0.02420976
2
Lattice="4.976672456295057 -0.15624998260772846 -0.10842335765384475 -2.433950127599303 4.5156686470348015 0.19123208240074707 0.1922030614781023 0.050046410643436616 8.704750195382772" Properties=species:S:1:pos:R:3:dft_force:R:3 dft_energy=-8.424954368512788 volume=192.36536522387777 dft_virial="-0.00011207566048891272 2.6416237359408478e-05 1.080061368417422e-05 2.641623735940848e-05 -6.605820767555743e-06 2.76547135798499e-05 1.0800613684174222e-05 2.76547135798499e-05 -2.738324079705035e-05" id=2354 pbc="T T T"
Si       0.09386317      -0.02612609       0.12239932      -0.00204733       0.00544949      -0.05767347
Si       0.28780981       2.88224593       4.35189487       0.00204732      -0.00544949       0.05767347
2
Lattice="5.148870725839781 0.004447375948000519 0.03330304033676612 -2.583796168521377 4.391393813113327 -0.042065794862962046 -0.1215910448792821 0.4444249207154713 8.769273967942318" Properties=species:S:1:pos:R:3:dft_force:R:3 dft_energy=-8.425702927921005 volume=198.45618031774572 dft_virial="8.577992716970849e-05 8.664899290012058e-06 -2.8603154576825095e-05 8.664899290012056e-06 4.760800475757978e-05 1.554862832092586e-05 -2.8603154576825095e-05 1.554862832092586e-05 1.7862578452062843e-05" id=2348 pbc="T T T"
Si       0.09386364      -0.02612730       0.12239958      -0.00402083       0.00976284      -0.02724372
Si       0.28780835       2.88224475       4.35189291       0.00402082      -0.00976284       0.02724373
4
Lattice="7.413475049890437 0.014438698119599398 0.4488287573735604 0.13061121789817454 7.41225234039602 0.004867065223018656 -0.17084420518738458 -0.08045956840685753 7.145171092209187" Properties=species:S:1:pos:R:3:dft_force:R:3 dft_energy=-16.8452229337059 volume=393.18413518882585 dft_virial="-0.00011021845154773557 -2.3731462261409063e-05 4.427794406613702e-05 -2.373146226140907e-05 -3.166276431133918e-05 -3.4657084614384296e-06 4.427794406613702e-05 -3.4657084614384287e-06 9.103990646431373e-06" id=2297 pbc="T T T"
Si       0.09386744      -0.02612463       0.12239250       0.06106401      -0.04247164      -0.01710613
Si       3.95215600       3.62009830      -0.04424255      -0.04441423       0.03943832      -0.01575365
Si       3.96276872       0.14502057       3.57562263      -0.05892682      -0.03347962       0.01336814
Si       0.10252622       3.57677092       3.57633426       0.04227684       0.03651265       0.01949165
4
Lattice="7.532265293885889 -0.060031761280481676 0.06321914343762672 -0.15285074325475162 7.372218095603337 -0.1980738925267384 0.07901676251070576 0.1796031802613312 7.273068285447175" Properties=species:S:1:pos:R:3:dft_force:R:3 dft_energy=-16.845540367994918 volume=404.03346175843603 dft_virial="8.757468759578211e-06 1.2749020830955194e-05 2.306288320355254e-05 1.2749020830955194e-05 4.994381619777435e-05 -1.2922230335144393e-05 2.3062883203552533e-05 -1.292223033514439e-05 0.00010671256597173178" id=2282 pbc="T T T"
Si       0.09386285      -0.02612395       0.12239807       0.01542186      -0.03155957      -0.01239136
Si       3.95215128       3.62009813      -0.04424894      -0.00843463       0.03375452      -0.02264795
Si       3.96276948       0.14502083       3.57562792      -0.02713981      -0.02226558       0.01305207
Si       0.10252836       3.57676841       3.57633095       0.02015260       0.02007059       0.02198728
4
Lattice="7.412827043905041 0.032921674707555394 0.20584901948842116 0.20807014688352257 7.3499386970255305 -0.03451904130344031 -0.14650506182551953 0.2754115199921467 7.383283462515128" Properties=species:S:1:pos:R:3:dft_force:R:3 dft_energy=-16.844993850134728 volume=402.523038488258 dft_virial="2.2360673621736543e-05 1.7312438884018523e-06 6.180487503009735e-05 1.7312438884018523e-06 6.350813684144172e-06 5.50146398973377e-06 6.180487503009735e-05 5.501463989733768e-06 3.4616028961403454e-05" id=2293 pbc="T T T"
Si       0.09386517      -0.02612597       0.12239263       0.02944741      -0.02715343      -0.01742247
Si       3.95215487       3.62009452      -0.04424624      -0.03150561       0.04113593      -0.03826603
Si       3.96276731       0.14502643       3.57562393      -0.01923167      -0.02316175       0.02421265
Si       0.10252607       3.57677291       3.57633147       0.02128991       0.00917916       0.03147580
2
Lattice="5.7307058722826945 -0.13965877304861282 -0.07786423744455774 0.06328917668780534 5.77012300811212 0.06724766159010394 0.00899133579823066 -0.08442702950824808 5.626438759370091" Properties=species:S:1:pos:R:3:dft_force:R:3 dft_energy=-8.422380293363515 volume=186.13540189898825 dft_virial="-0.0002812792727387496 -3.127092924271529e-05 -1.7732486132432743e-05 -3.127092924271529e-05 -0.0002575776800377624 2.387563305014571e-06 -1.773248613243275e-05 2.3875633050145728e-06 -0.00018506540092590523" id=2252 pbc="T T T"
Si       0.09386606      -0.02612658       0.12239584       0.04679940       0.03387464      -0.00779370
Si       3.20509123       2.87302911       2.87303438      -0.04679940      -0.03387465       0.00779370
2
Lattice="5.6371540923118175 -0.0038109350864878057 0.006504550704529378 0.10567244553970453 5.815560830271864 0.19958414274827807 0.022363170136911335 -0.009845983335353912 5.982670426410935" Properties=species:S:1:pos:R:3:dft_force:R:3 dft_energy=-8.42248576989811 volume=196.14377325399724 dft_virial="-4.4277622745601177e-05 1.5501267816511785e-05 5.697793023910008e-05 1.5501267816511792e-05 -0.0001693466975642785 2.650297849280305e-05 5.6977930239100105e-05 2.650297849280305e-05 -6.20742206872007e-05" id=2242 pbc="T T T"
Si       0.09386604      -0.02612798       0.12239798       0.02895304       0.00788212      -0.06769412
Si       3.20509165       2.87303045       2.87303548      -0.02895304      -0.00788212       0.06769412
2
Lattice="5.895957357415205 0.06060975291295971 0.24922647325448594 0.04937272328000753 5.937087681154693 -0.00454851409019049 -0.038208467000114675 -0.06362324247211669 5.919875110748539" Properties=species:S:1:pos:R:3:dft_force:R:3 dft_energy=-8.422122092740254 volume=207.26048043724995 dft_virial="0.00010790631321704696 7.637480467045454e-06 1.459236335171103e-05 7.637480467045457e-06 1.9055805795551256e-05 -1.36686486482976e-05 1.4592363351711038e-05 -1.36686486482976e-05 0.0001487589766205788" id=2262 pbc="T T T"
Si       0.09386357      -0.02612945       0.12239675       0.03003853      -0.01775772      -0.03708986
Si       3.20508934       2.87303274       2.87303606      -0.03003853       0.01775773       0.03708985
4
Lattice="7.074711822173021 -0.13957674003754283 -0.035435860830063746 -0.11219009204627756 7.69731877351506 0.02833338188244153 -0.04032291935548095 0.07872948634524014 7.165553527011311" Properties=species:S:1:pos:R:3:dft_force:R:3 dft_energy=-16.84021726585135 volume=390.07110567484364 dft_virial="-0.00015934858359922704 -4.4178726634292364e-05 1.4491967350235453e-05 -4.4178726634292385e-05 -0.00011234873000702358 -3.975365444957434e-05 1.4491967350235453e-05 -3.975365444957432e-05 -5.996451666054656e-05" id=2327 pbc="T T T"
Si       0.09386706      -0.02612386       0.12239484       0.08920710      -0.06222177      -0.00559549
Si       3.95215566       3.62009238      -0.04424510      -0.08856526       0.05952191      -0.02272081
Si       3.96277360       0.14502289       3.57562238      -0.12682978      -0.09548544       0.01834194
Si       0.10253240       3.57676722       3.57632965       0.12618803       0.09818529       0.00997428
2
Lattice="5.0736664290937235 -0.01890338395890149 -0.015789738915139347 -2.5719567886862005 4.272251399757289 0.14538322591163544 -0.10713666203284831 0.4337353825353457 8.593063224019916" Properties=species:S:1:pos:R:3:dft_force:R:3 dft_energy=-8.424537940559233 volume=185.5360172454748 dft_virial="-0.00018828383060290693 -3.281031354490589e-05 -3.425988094495203e-05 -3.281031354490589e-05 -0.000161281097210792 4.460279011933168e-05 -3.4259880944952035e-05 4.4602790119331694e-05 -0.00016249441223254715" id=2329 pbc="T T T"
Si       0.09386519      -0.02612745       0.12239416      -0.00207942       0.00862374      -0.05115272
Si       0.28781083       2.88224551       4.35189156       0.00207943      -0.00862374       0.05115271
2
Lattice="5.8813459194305535 0.19660221161540234 0.019428519951673745 -0.008109532896696537 5.874398870456681 -0.14663042625662723 -0.0015577012445290223 0.03240485350973149 5.790149135053445" Properties=species:S:1:pos:R:3:dft_force:R:3 dft_energy=-8.423356533062679 volume=200.08340994764666 dft_virial="-6.15092011162327e-07 3.524988870149416e-05 8.436209818401738e-06 3.5249888701494184e-05 6.501425925935086e-06 -3.7551035517987776e-06 8.436209818401741e-06 -3.7551035517987763e-06 4.715482249412726e-05" id=2255 pbc="T T T"
Si       0.09386321      -0.02612535       0.12239578       0.02918108      -0.02625302      -0.01421481
Si       3.20508999       2.87303328       2.87303725      -0.02918108       0.02625301       0.01421480
4
Lattice="7.498355953819297 0.0023301834897535446 0.1468551146928452 0.13437107368751372 7.3288030740819154 0.04006763625330525 -0.1245828025880059 0.17646449634641778 7.444496718363249" Properties=species:S:1:pos:R:3:dft_force:R:3 dft_energy=-16.8447252263468 volume=409.18688771600654 dft_virial="6.513048910801008e-05 7.197421927987898e-06 2.429882067708426e-05 7.1974219279879e-06 6.43277658015618e-05 1.2693077622698193e-05 2.4298820677084257e-05 1.2693077622698188e-05 7.292619662412092e-05" id=2318 pbc="T T T"
Si       0.09386253      -0.02612446       0.12239749       0.01485942      -0.02504973      -0.01635466
Si       3.95215517       3.62009535      -0.04424601      -0.01773026       0.03208089      -0.04350977
Si       3.96277061       0.14502669       3.57562138      -0.01035797      -0.01452434       0.02759061
Si       0.10253119       3.57676633       3.57633345       0.01322873       0.00749314       0.03227379
4
Lattice="7.079294048977275 -0.22458597526752686 0.22621588294727782 0.04413903229155022 7.581021059380728 0.03364608232016943 -0.029587706494923132 -0.01596797788321405 7.543321911365723" Properties=species:S:1:pos:R:3:dft_force:R:3 dft_energy=-16.83821770713906 volume=404.96647780849344 dft_virial="-7.418541401636837e-05 -7.849911550625243e-05 7.790755846145376e-05 -7.849911550625243e-05 -3.395809394273793e-05 -5.653900647747043e-05 7.790755846145376e-05 -5.653900647747043e-05 -8.343050717035575e-06" id=2317 pbc="T T T"
Si       0.09386425      -0.02612932       0.12239577       0.09878450      -0.05594354      -0.07580168
Si       3.95215619       3.62009474      -0.04424546      -0.06644893       0.03893719      -0.04627009
Si       3.96276874       0.14502166       3.57562565      -0.14109608      -0.07639709       0.08134691
Si       0.10253206       3.57676845       3.57633130       0.10876101       0.09340308       0.04072505
4
Lattice="7.210215087473582 -0.24236877053178651 0.09101614545685446 0.090360845128618 7.40026718708759 0.05829618011584163 -0.21274098294576008 -0.07309451201421856 7.275156697376544" Properties=species:S:1:pos:R:3:dft_force:R:3 dft_energy=-16.842943796418897 volume=388.52005471326146 dft_virial="-0.00011559313443879704 -6.18527415952076e-05 1.1233991074890159e-05 -6.18527415952076e-05 -0.00013177466732929865 -1.43311702784354e-05 1.1233991074890155e-05 -1.4331170278435394e-05 -6.55415394671527e-05" id=2314 pbc="T T T"
Si       0.09386466      -0.02612601       0.12239771       0.06530516      -0.04143156      -0.02190845
Si       3.95215506       3.62009461      -0.04424522      -0.06624625       0.02643417      -0.02828570
Si       3.96277273       0.14502257       3.57562331      -0.08511585      -0.04557295       0.02870991
Si       0.10253165       3.57677060       3.57633303       0.08605681       0.06057021       0.02148429
4
Lattice="7.413541946195249 -0.08671998539334651 0.0683951410874992 -0.28953701490385064 7.435276102094317 0.05098709741101407 0.004613180518175184 -0.08532576435585885 7.14657100132231" Properties=species:S:1:pos:R:3:dft_force:R:3 dft_energy=-16.845663397847748 volume=393.7835015189699 dft_virial="-4.777819457606286e-05 -1.6372949824205885e-05 1.8208671143292162e-05 -1.6372949824205878e-05 -5.2167540909247376e-05 -3.9303203170600765e-05 1.8208671143292155e-05 -3.9303203170600765e-05 1.5376370048372095e-05" id=2321 pbc="T T T"
Si       0.09386640      -0.02612405       0.12239401       0.02634045      -0.04003898      -0.00194669
Si       3.95215610       3.62009197      -0.04424629      -0.03493867       0.03386209      -0.01062461
Si       3.96277173       0.14502197       3.57562733      -0.04626643      -0.03455316       0.00689651
Si       0.10252919       3.57676977       3.57633651       0.05486447       0.04072984       0.00567483
2
Lattice="5.076803714611304 0.2577896538046601 -0.05912501399410249 -2.400263283886625 4.202716678227596 0.02852411194020001 -0.048510176687683336 -0.10284758844230768 8.827176291339265" Properties=species:S:1:pos:R:3:dft_force:R:3 dft_energy=-8.424560169767435 volume=193.7896960784047 dft_virial="-1.6406531246132593e-05 6.325075874602878e-05 -7.601495071530565e-06 6.32507587460288e-05 -0.00010127416618420716 -1.0492626325231164e-05 -7.601495071530563e-06 -1.0492626325231163e-05 2.2924537594835394e-05" id=2337 pbc="T T T"
Si       0.09386638      -0.02612756       0.12239605      -0.00346480      -0.00228067      -0.04947244
Si       0.28780659       2.88224812       4.35188877       0.00346480       0.00228067       0.04947247
2
Lattice="4.972586169214949 -0.0017757378447883438 0.030680572907316708 -2.434780208696806 4.420841490902414 -0.10832138803215993 -0.17377862860548718 -0.37025543799525934 9.059066303742869" Properties=species:S:1:pos:R:3:dft_force:R:3 dft_energy=-8.425020439333219 volume=198.9581872485642 dft_virial="-3.143072587165366e-05 4.1046594347634354e-05 1.0155566070649726e-05 4.1046594347634354e-05 5.664835700820113e-05 -2.1320843148233007e-05 1.0155566070649727e-05 -2.1320843148233007e-05 6.505944928180732e-05" id=2333 pbc="T T T"
Si       0.09386162      -0.02612618       0.12239480      -0.00922690      -0.00013547      -0.03651844
Si       0.28781100       2.88224422       4.35189478       0.00922690       0.00013546       0.03651847
4
Lattice="7.172441200790347 -0.027443453158571513 -0.1750280966218285 0.04478089666704062 7.250122928485789 0.08420492999682082 0.08734756343933472 -0.11710959716925458 7.5109692331942925" Properties=species:S:1:pos:R:3:dft_force:R:3 dft_energy=-16.842796948042842 volume=390.77003240436176 dft_virial="-4.2810897266126e-05 -2.5695240765325242e-05 -1.584828351681364e-05 -2.5695240765325242e-05 -8.84295722324842e-05 1.1943219125229252e-05 -1.584828351681364e-05 1.1943219125229252e-05 -9.86459391834603e-05" id=2283 pbc="T T T"
Si       0.09386606      -0.02612596       0.12239452       0.07261285      -0.02732827      -0.03790600
Si       3.95215721       3.62009437      -0.04424595      -0.07734816       0.01393302      -0.05250313
Si       3.96277027       0.14502463       3.57562673      -0.07540936      -0.02038077       0.04286931
Si       0.10252658       3.57676837       3.57632995       0.08014465       0.03377598       0.04753982
2
Lattice="4.956405445964625 -0.07872442187922615 -0.020310001599766682 -2.554234823705892 4.442019991731798 0.03381770724680795 0.14976827869204581 -0.14944749768239057 8.789133874573722" Properties=species:S:1:pos:R:3:dft_force:R:3 dft_energy=-8.42513713153104 volume=191.76862962119654 dft_virial="-9.946548040855572e-05 -2.236270569825516e-05 5.717819232399495e-06 -2.2362705698255153e-05 -7.10639384825476e-05 -3.4225914981295443e-06 5.717819232399495e-06 -3.4225914981295456e-06 -1.299711234263503e-05" id=2328 pbc="T T T"
Si       0.09386536      -0.02612665       0.12239382      -0.00477827      -0.00007475      -0.04603659
Si       0.28780931       2.88224623       4.35189243       0.00477827       0.00007475       0.04603651
2
Lattice="4.947990060894658 -0.05932685564147377 -0.10360011517965617 -2.4762087312187604 4.4900573589431 -0.039018649281525486 0.22412682851102655 0.08362605019306421 8.646460156876836" Properties=species:S:1:pos:R:3:dft_force:R:3 dft_energy=-8.425589321914568 volume=190.96848323858174 dft_virial="-8.588578906300834e-05 2.0353348762441517e-05 -2.786559414467735e-06 2.0353348762441507e-05 -1.1952378645998667e-05 -1.564082983124535e-05 -2.7865594144677325e-06 -1.564082983124535e-05 -3.7983893231725536e-05" id=2373 pbc="T T T"
Si       0.09386317      -0.02612590       0.12239312      -0.00233893       0.00463315      -0.01122260
Si       0.28780570       2.88224819       4.35189300       0.00233893      -0.00463314       0.01122260
2
Lattice="5.126164551513988 -0.04213667848989676 -0.03683516523082664 -2.5415186865379344 4.436483509926393 -0.11255025494836998 -0.15744393047052826 0.1689768723173356 8.814388117811438" Properties=species:S:1:pos:R:3:dft_force:R:3 dft_energy=-8.42563913134054 volume=199.60097986548627 dft_virial="8.289248044637854e-05 1.0872456416190929e-05 -5.61761887355635e-06 1.0872456416190929e-05 6.524143380031919e-05 3.43262486805633e-05 -5.617618873556353e-06 3.4326248680563314e-05 7.767205272664665e-05" id=2341 pbc="T T T"
Si       0.09386570      -0.02612699       0.12239425      -0.00756320       0.00571023      -0.01524085
Si       0.28780691       2.88224842       4.35189500       0.00756320      -0.00571023       0.01524085
2
Lattice="5.108758699919807 0.22349930715682206 0.022496565904048665 -2.4419478642984664 4.170293796730635 0.13121851918284552 -0.1095091942850547 0.05020973967238802 8.875775889867167" Properties=species:S:1:pos:R:3:dft_force:R:3 dft_energy=-8.423523910343658 volume=193.91343452494132 dft_virial="-2.893162949833841e-05 1.601137753915866e-05 1.3197175988530365e-05 1.6011377539158664e-05 -0.00014253276522128416 1.0861106287951717e-05 1.3197175988530365e-05 1.0861106287951717e-05 -2.1097884584532758e-05" id=2349 pbc="T T T"
Si       0.09386300      -0.02612779       0.12239165      -0.00196685       0.00322375      -0.08046164
Si       0.28780614       2.88224713       4.35189085       0.00196685      -0.00322375       0.08046179
2
Lattice="4.889376576865231 0.04203306480648353 0.025719720576732875 -2.4309062701413233 4.451684674742755 0.021336066193654735 -0.2511740438957865 0.05004890508192112 8.764065221338708" Properties=species:S:1:pos:R:3:dft_force:R:3 dft_energy=-8.42501280518711 volume=191.67399880872597 dft_virial="-0.0001776490118262525 -1.7822535001770065e-05 -3.6246485090174642e-06 -1.7822535001770055e-05 2.5947216418196075e-05 4.096679100788895e-05 -3.6246485090174634e-06 4.096679100788896e-05 -3.173302954437427e-05" id=2353 pbc="T T T"
Si       0.09386338      -0.02612868       0.12239329      -0.00739412       0.00371972      -0.04950135
Si       0.28780827       2.88224698       4.35189045       0.00739412      -0.00371971       0.04950135
4
Lattice="7.23030221477421 -0.1059791102952088 0.005322356938224743 0.14611190430529114 7.19726250777291 -0.1167027202373614 0.01526789104582394 -0.1765874986198697 7.346866248011286" Properties=species:S:1:pos:R:3:dft_force:R:3 dft_energy=-16.843584497749305 volume=382.2832676955504 dft_virial="-9.721597928890112e-05 -3.508449541910773e-05 1.0118387387501756e-07 -3.508449541910774e-05 -0.00012973703622696448 1.6105250928483977e-05 1.0118387387501746e-07 1.610525092848397e-05 -0.00017213877750810953" id=2323 pbc="T T T"
Si       0.09386238      -0.02612518       0.12239563       0.05977958      -0.02611666      -0.03791541
Si       3.95215137       3.62009690      -0.04424518      -0.05510137       0.01121294      -0.02278780
Si       3.96277237       0.14502261       3.57562507      -0.06628019      -0.02030009       0.03403652
Si       0.10252533       3.57676812       3.57633277       0.06160199       0.03520378       0.02666674
4
Lattice="7.4184675362363475 0.1532449590216098 -0.20526250519112108 0.03165689990960461 7.187355240619334 -0.01781497730016203 -0.1580191820001256 -0.012176998304602291 7.509809338196258" Properties=species:S:1:pos:R:3:dft_force:R:3 dft_energy=-16.845188875129725 volume=400.14608145722553 dft_virial="2.8535241336038854e-05 2.8692580556155503e-05 4.132594676301325e-06 2.8692580556155503e-05 6.53409351059858e-05 -1.8604513469437836e-05 4.132594676301324e-06 -1.8604513469437836e-05 -1.9144502117770677e-05" id=2295 pbc="T T T"
Si       0.09386491      -0.02612970       0.12239665       0.02907754      -0.01688561      -0.03627378
Si       3.95215640       3.62009824      -0.04424486      -0.04430699       0.01176162      -0.04446838
Si       3.96277231       0.14502403       3.57562665      -0.01966942      -0.00291044       0.04041581
Si       0.10252533       3.57677015       3.57633415       0.03489901       0.00803449       0.04032633
2
Lattice="5.048475964112715 0.02254634129017131 -0.025171076390970274 -2.5006736736487416 4.4557061631140495 -0.025979973658616335 0.09099945917517402 0.12551128172481826 8.47836503076925" Properties=species:S:1:pos:R:3:dft_force:R:3 dft_energy=-8.42553325538321 volume=191.22933212996566 dft_virial="-3.59898525026144e-05 1.5342208955546184e-05 7.2388176198504775e-06 1.5342208955546184e-05 2.5901415647251506e-05 1.636387908070953e-08 7.2388176198504775e-06 1.6363879080709876e-08 -0.00010888380122741431" id=2345 pbc="T T T"
Si       0.09386657      -0.02612724       0.12239673      -0.00202991       0.00471205       0.00647889
Si       0.28781221       2.88224496       4.35189521       0.00202992      -0.00471205      -0.00647889
2
Lattice="5.746501091403595 -0.1491386219473205 0.0951193077912544 0.08603994855013868 5.684399021770019 -0.06583686765450332 -0.014427114098455441 0.04419013048596011 6.020773163234376" Properties=species:S:1:pos:R:3:dft_force:R:3 dft_energy=-8.422831682459732 volume=196.77299193027366 dft_virial="-6.48570277002198e-05 -1.9929290685900184e-05 6.918356722239548e-05 -1.9929290685900184e-05 -3.6108575915549924e-05 3.4097670390536794e-05 6.918356722239546e-05 3.409767039053678e-05 -9.024870108816165e-05" id=2265 pbc="T T T"
Si       0.09386364      -0.02612501       0.12239696       0.03428475       0.01357001      -0.06207582
Si       3.20509095       2.87303198       2.87303858      -0.03428475      -0.01357001       0.06207582
2
Lattice="5.872222000447419 -0.0022040442709347742 0.020635695897345933 -0.10169169966365785 5.811134184619451 -0.1748403901258694 0.06124084584953974 0.06072918360403606 5.893407247599067" Properties=species:S:1:pos:R:3:dft_force:R:3 dft_energy=-8.42354584841484 volume=201.16180237165696 dft_virial="6.666143126004623e-05 4.082414483133249e-06 1.6298289161336103e-05 4.082414483133249e-06 6.31727852723627e-05 -1.4037908497276675e-06 1.62982891613361e-05 -1.4037908497276675e-06 -7.146740389234446e-06" id=2266 pbc="T T T"
Si       0.09386185      -0.02612652       0.12239732       0.02228731      -0.00292534      -0.01770988
Si       3.20509169       2.87303054       2.87303582      -0.02228731       0.00292535       0.01770988
2
Lattice="5.856641492008798 0.13528466178246404 -0.13231624219137939 -0.08858626001676567 5.675404945868907 0.007440116314309106 0.025451322775252274 -0.02238369256262477 5.8966238449220985" Properties=species:S:1:pos:R:3:dft_force:R:3 dft_energy=-8.424082943825656 volume=196.08729044734613 dft_virial="-6.951639371533066e-05 6.1145204328121946e-06 8.087616712109448e-06 6.114520432812191e-06 2.004287516956618e-06 -7.541244922369294e-06 8.087616712109448e-06 -7.541244922369297e-06 -6.25812302521758e-05" id=2263 pbc="T T T"
Si       0.09386358      -0.02612510       0.12239569       0.03349871      -0.00058742      -0.02059123
Si       3.20508791       2.87303001       2.87303661      -0.03349870       0.00058742       0.02059123
4
Lattice="7.26769210910892 0.005775910105396174 -0.062320824329763366 0.043229998436560245 7.311867480833847 0.1642188253944466 0.1802280371017 0.2917953510063459 7.219065449702915" Properties=species:S:1:pos:R:3:dft_force:R:3 dft_energy=-16.844180750775568 volume=383.35549061802357 dft_virial="-6.591711060094976e-05 6.203658604859074e-06 3.3990236271174634e-05 6.203658604859076e-06 -0.00014643440189798278 5.81275215829143e-06 3.399023627117462e-05 5.8127521582914276e-06 -0.00014054900492141387" id=2307 pbc="T T T"
Si       0.09386338      -0.02612756       0.12239834       0.05191179      -0.02405567      -0.01108305
Si       3.95215612       3.62009675      -0.04424928      -0.04772275       0.02900377      -0.02603198
Si       3.96277424       0.14502418       3.57562233      -0.05746883      -0.02278827       0.02275694
Si       0.10253032       3.57677317       3.57633071       0.05327980       0.01784019       0.01435812
4
Lattice="7.147621783533909 -0.01902357054042769 0.16765277901633283 -0.15564215219974256 7.167190993595561 -0.052983479678113725 0.0915367839014501 -0.058044544185086464 7.127046747845163" Properties=species:S:1:pos:R:3:dft_force:R:3 dft_energy=-16.837792746099247 volume=364.95552342455835 dft_virial="-0.00035349752679064337 -3.916865016512848e-05 6.715497703881114e-05 -3.916865016512848e-05 -0.00029683073166166457 -3.1811547946961063e-05 6.715497703881114e-05 -3.1811547946961063e-05 -0.00029116613304845657" id=2308 pbc="T T T"
Si       0.09386549      -0.02612809       0.12239917       0.11103649      -0.00051754      -0.02113638
Si       3.95215120       3.62009679      -0.04424525      -0.11567382       0.00174054       0.01262726
Si       3.96276751       0.14502442       3.57562478      -0.11428014      -0.02378560       0.02453482
Si       0.10252868       3.57676822       3.57633243       0.11891748       0.02256262      -0.01602569
2
Lattice="4.937572492098388 0.14207374854957833 -0.17635793469025013 -2.61273473519523 4.342918690845255 0.09209381847120605 0.11784545652218385 -0.3659718635077414 8.760827062240592" Properties=species:S:1:pos:R:3:dft_force:R:3 dft_energy=-8.425467514195516 volume=191.20419573159757 dft_virial="-0.00015219484710222588 -1.2472740105758998e-05 2.6312421390810217e-05 -1.2472740105758985e-05 5.106893882906502e-06 -3.895341271106609e-05 2.6312421390810217e-05 -3.8953412711066105e-05 -3.6297142187352314e-05" id=2350 pbc="T T T"
Si       0.09386655      -0.02612875       0.12239705      -0.01103112       0.00079033      -0.03384126
Si       0.28781264       2.88224434       4.35189572       0.01103112      -0.00079033       0.03384119
4
Lattice="7.380397964106392 0.03717524034421429 -0.04931023003706615 -0.03542559961720703 7.07421278329803 0.21048311927479596 -0.1453101313051349 -0.12521421677802708 7.4063540705240545" Properties=species:S:1:pos:R:3:dft_force:R:3 dft_energy=-16.84526788667941 volume=386.8417141743198 dft_virial="-9.122279950817971e-05 -1.987140371733758e-05 2.574018536465556e-05 -1.987140371733758e-05 -4.8288558762402906e-05 3.7726074706164416e-05 2.574018536465556e-05 3.7726074706164416e-05 -0.00010209500018231731" id=2325 pbc="T T T"
Si       0.09386109      -0.02612728       0.12239554       0.04023756       0.00373169      -0.04213062
Si       3.95215468       3.62009646      -0.04424559      -0.04792994      -0.00188116      -0.04304097
Si       3.96277107       0.14502185       3.57562454      -0.03206314       0.00678982       0.03667053
Si       0.10252805       3.57677111       3.57633198       0.03975553      -0.00864039       0.04850117
4
Lattice="7.411140236571678 -0.3599542952255281 -0.29041980046296956 -0.16140972861292915 7.079301966929737 -0.021926416634987827 -0.14042860967726287 -0.08673219302411159 7.399918230261417" Properties=species:S:1:pos:R:3:dft_force:R:3 dft_energy=-16.844128242996778 volume=387.5039662221563 dft_virial="-0.00017351237742036914 -9.743928380306346e-05 -2.2817698779421816e-05 -9.743928380306349e-05 -5.2289486271300184e-05 3.657181526853641e-05 -2.281769877942183e-05 3.657181526853642e-05 -5.978257077064657e-05" id=2298 pbc="T T T"
Si       0.09386702      -0.02612998       0.12239490       0.07134590       0.01613614      -0.03845788
Si       3.95215271       3.62009382      -0.04424845      -0.09322905      -0.02534420      -0.03014452
Si       3.96277116       0.14502437       3.57562359      -0.05397168       0.00359180       0.03292619
Si       0.10253085       3.57676778       3.57633016       0.07585486       0.00561630       0.03567612
4
Lattice="7.395509404726359 -0.23554638679035633 -0.04424704903683383 0.37566859627377236 7.412898607833381 -0.24672324754350045 -0.15455493606846163 -0.1796688104496395 7.248131289431262" Properties=species:S:1:pos:R:3:dft_force:R:3 dft_energy=-16.845071154468084 volume=397.61507042460585 dft_virial="3.9773074031095805e-06 -1.1299399577393152e-05 -1.5832711859449273e-05 -1.1299399577393154e-05 -3.418580277322383e-05 2.9382269583364434e-06 -1.5832711859449276e-05 2.938226958336443e-06 1.1864985322774854e-05" id=2290 pbc="T T T"
Si       0.09386631      -0.02612947       0.12239437       0.02882799      -0.05055052      -0.01945214
Si       3.95215489       3.62009592      -0.04424338      -0.03316736       0.03508655      -0.00324729
Si       3.96277424       0.14502080       3.57562167      -0.02536148      -0.02889245       0.00980945
Si       0.10252743       3.57676930       3.57633024       0.02970057       0.04435618       0.01289014
2
Lattice="5.825884441885218 -0.18347235670698 0.00034880564808342465 -0.1083952763236328 5.828770148163827 0.05946580720341751 -0.03744348696760492 -0.15631464903571315 5.83031821180512" Properties=species:S:1:pos:R:3:dft_force:R:3 dft_energy=-8.422412808761164 volume=197.92313133915118 dft_virial="-6.805827659416849e-06 -5.661994153033557e-05 2.8898247221105902e-05 -5.6619941530335516e-05 -5.556041102737637e-05 3.083552316426277e-05 2.8898247221105888e-05 3.0835523164262785e-05 -8.872403983484305e-05" id=2245 pbc="T T T"
Si       0.09386249      -0.02612624       0.12239703       0.04570441       0.03473638      -0.03003010
Si       3.20509048       2.87303419       2.87303566      -0.04570440      -0.03473638       0.03003010
2
Lattice="5.245730735953473 -0.019053371521413037 0.04855704189557406 -2.718636725767293 4.312611187669462 -0.14197884650359963 -0.1747227735718727 -0.2034037138831554 8.947660183476653" Properties=species:S:1:pos:R:3:dft_force:R:3 dft_energy=-8.425218730830663 volume=201.86909404040958 dft_virial="8.876560536535929e-05 -3.934599127324176e-05 2.671663225765913e-05 -3.934599127324178e-05 2.9990790667985405e-05 -2.2982443256999916e-05 2.671663225765913e-05 -2.2982443256999906e-05 0.00013062327119585073" id=2376 pbc="T T T"
Si       0.09386566      -0.02612575       0.12239879      -0.01348264       0.00270989      -0.02955367
Si       0.28780525       2.88224819       4.35189446       0.01348265      -0.00270990       0.02955366
2
Lattice="4.992606986025864 -0.09655147452932454 -0.17218706346880489 -2.446895923183187 4.5284966748866 0.2539881484515342 0.08350601478962798 0.14253393465544723 8.681152391579598" Properties=species:S:1:pos:R:3:dft_force:R:3 dft_energy=-8.424853204732539 volume=194.1636526463143 dft_virial="-8.021418750213174e-05 4.179967110620953e-05 -1.9142224604467743e-05 4.179967110620951e-05 7.311415723507043e-05 2.8605518283224668e-05 -1.914222460446774e-05 2.8605518283224668e-05 -6.657476882506498e-05" id=2352 pbc="T T T"
Si       0.09386385      -0.02612529       0.12239372      -0.00160172       0.00689296      -0.06059971
Si       0.28781202       2.88224396       4.35188845       0.00160173      -0.00689296       0.06059973
2
Lattice="5.813588617601899 -0.1409054442702897 -0.17870047698885877 -0.047628997395770346 5.691485834888068 0.05805081807582022 0.04287110165097132 0.10639161861095335 5.827339833357359" Properties=species:S:1:pos:R:3:dft_force:R:3 dft_energy=-8.423521174264206 volume=192.78391543248483 dft_virial="-0.00013317075668547695 -4.852087424304596e-05 3.265446606561338e-05 -4.852087424304599e-05 -5.160992629930642e-05 3.0404623917256102e-05 3.265446606561339e-05 3.0404623917256102e-05 -0.00014779428066234197" id=2238 pbc="T T T"
Si       0.09386332      -0.02612518       0.12239805       0.03734194       0.01903479      -0.01635574
Si       3.20508883       2.87303206       2.87303364      -0.03734194      -0.01903479       0.01635574
2
Lattice="5.026014547114584 0.057833820824929445 0.025909694744041502 -2.6147154327354953 4.341794114828491 -0.004144679617357963 -0.0763200099472973 0.012948063255233344 8.904760622550244" Properties=species:S:1:pos:R:3:dft_force:R:3 dft_energy=-8.425262720723513 volume=195.6735425944765 dft_virial="-1.7976215400818335e-05 -1.9837887478912486e-05 1.4352334026706122e-05 -1.9837887478912492e-05 -6.779271854665578e-06 3.064206061839357e-06 1.4352334026706122e-05 3.0642060618393577e-06 1.1599841461513041e-05" id=2362 pbc="T T T"
Si       0.09386752      -0.02612907       0.12239930      -0.00971065       0.00317429      -0.04780946
Si       0.28780984       2.88224732       4.35188871       0.00971066      -0.00317429       0.04780950
2
Lattice="5.99905875497331 -0.016767067472273304 0.05672768853514099 0.11009546291795862 5.879024145222054 -0.057051663181946835 -0.10995484839702521 0.037016767911403174 5.806620101339251" Properties=species:S:1:pos:R:3:dft_force:R:3 dft_energy=-8.423707529895696 volume=204.85161158251427 dft_virial="5.088570085488621e-05 1.4525174921392174e-05 2.0654403469408622e-05 1.4525174921392174e-05 0.00010105395125406503 -4.4635184594401936e-06 2.0654403469408622e-05 -4.4635184594401936e-06 0.00016350913710325057" id=2236 pbc="T T T"
Si       0.09386258      -0.02612934       0.12239724       0.01282913      -0.00654878      -0.01114535
Si       3.20509055       2.87302947       2.87303296      -0.01282913       0.00654878       0.01114534
4
Lattice="7.565635778548043 0.07890695052560376 -0.00040379667831003455 -0.05471240900679509 7.5342773041880395 0.06767861363282485 -0.07058493682345429 -0.002502261950661967 7.391722110113689" Properties=species:S:1:pos:R:3:dft_force:R:3 dft_energy=-16.843053248426386 volume=421.37257274951173 dft_virial="0.00016047864188103937 6.576993697471005e-06 -7.010788785941462e-07 6.576993697471e-06 0.00013386336071704623 7.4589149783706826e-06 -7.01078878594146e-07 7.458914978370685e-06 0.00010398076884951363" id=2291 pbc="T T T"
Si       0.09386831      -0.02613053       0.12239516       0.00284006      -0.03388919      -0.01076726
Si       3.95215409       3.62009465      -0.04424580      -0.00941720       0.02558985      -0.03341766
Si       3.96277033       0.14502219       3.57562119      -0.00434285      -0.01832922       0.02389361
Si       0.10252883       3.57676620       3.57633602       0.01091999       0.02662840       0.02029135
2
Lattice="5.032532250312941 -0.05265396813376273 0.05654449848461977 -2.3899119310937627 4.46563185509734 -0.06533440837522657 0.09070949959861144 0.06680663730713877 8.786726155621075" Properties=species:S:1:pos:R:3:dft_force:R:3 dft_energy=-8.425376581821821 volume=196.35256883029447 dft_virial="4.543979394168875e-06 1.5071086495115229e-05 -6.488736366145668e-06 1.5071086495115222e-05 3.1651073885059196e-05 -1.028478942540372e-05 -6.488736366145668e-06 -1.0284789425403724e-05 4.0868616857292665e-05" id=2369 pbc="T T T"
Si       0.09386434      -0.02612786       0.12239161      -0.00056311       0.00255117      -0.03327195
Si       0.28781052       2.88224708       4.35188960       0.00056311      -0.00255117       0.03327197
4
Lattice="7.1313111038179935 0.010417531001746975 0.05476685201644556 0.14352639991883942 7.421129687914414 -0.12170263320694126 -0.05959018897694038 0.06191396629513144 7.446356926965807" Properties=species:S:1:pos:R:3:dft_force:R:3 dft_energy=-16.842218538365607 volume=394.1463477038933 dft_virial="-6.342886242702617e-05 -5.322854965886364e-06 2.3625470730952686e-05 -5.322854965886362e-06 -5.9749157467804414e-05 1.252249177258411e-05 2.3625470730952676e-05 1.252249177258411e-05 -5.8054456624627714e-05" id=2310 pbc="T T T"
Si       0.09386236      -0.02612544       0.12239885       0.07953110      -0.04723370      -0.05145830
Si       3.95215341       3.62009845      -0.04424387      -0.07041189       0.04189424      -0.04244446
Si       3.96277260       0.14502418       3.57562492      -0.07978376      -0.03848112       0.05184323
Si       0.10252730       3.57676903       3.57633222       0.07066453       0.04382047       0.04205968
2
Lattice="5.935553147952452 -0.004474758079546346 0.1788856890463333 0.1371891655653844 5.648330990859484 0.01537297871561438 0.10462007595816167 -0.0007828946361712103 5.851661647930662" Properties=species:S:1:pos:R:3:dft_force:R:3 dft_energy=-8.423667262102908 volume=196.08055438348845 dft_virial="-0.00010715042712866453 2.6286732414987365e-05 5.3807000232716564e-05 2.6286732414987365e-05 -3.666525784558098e-05 1.2485815236054765e-05 5.3807000232716564e-05 1.2485815236054765e-05 -2.8231027580312208e-05" id=2240 pbc="T T T"
Si       0.09386442      -0.02613009       0.12239662       0.01637368       0.00817810      -0.04253312
Si       3.20509093       2.87303194       2.87303606      -0.01637368      -0.00817810       0.04253314
4
Lattice="7.351459076179099 0.11091658671363101 0.14688361176280457 0.12188699488765974 7.319283162989365 0.059723546949555215 -0.07893183821866508 0.04405541191053553 7.265288982190757" Properties=species:S:1:pos:R:3:dft_force:R:3 dft_energy=-16.844852937529108 volume=390.89394749757804 dft_virial="-7.502586541289336e-05 3.0011828904843073e-06 4.547881706613446e-05 3.0011828904843073e-06 -5.871667730668399e-05 1.1723860852407063e-05 4.547881706613446e-05 1.1723860852407063e-05 -2.7081147605422402e-05" id=2315 pbc="T T T"
Si       0.09386704      -0.02612854       0.12239293       0.04754563      -0.03069877      -0.01639000
Si       3.95215714       3.62009558      -0.04424556      -0.04029586       0.03218280      -0.02868119
Si       3.96277080       0.14502042       3.57562499      -0.04376533      -0.01996518       0.02430193
Si       0.10252930       3.57676731       3.57633649       0.03651559       0.01848105       0.02076929
2
Lattice="5.113895372369027 0.07834564517480616 -0.06760064353292278 -2.5540187524208027 4.361532852220782 -0.0420756214388101 -0.08163562056325713 -0.10732945189208264 8.77862588238239" Properties=species:S:1:pos:R:3:dft_force:R:3 dft_energy=-8.425679950710489 volume=197.4933267937983 dft_virial="6.500700963325305e-05 3.747651690844937e-05 1.5670555895527173e-06 3.747651690844936e-05 3.3162108075623434e-05 4.4243668477015365e-06 1.5670555895527165e-06 4.4243668477015365e-06 3.864370193882723e-05" id=2334 pbc="T T T"
Si       0.09386338      -0.02612902       0.12239272      -0.00912317       0.00289416      -0.01943023
Si       0.28781018       2.88224577       4.35188916       0.00912316      -0.00289416       0.01943025
2
Lattice="4.991359124276729 -0.04963891010192231 0.1193464281884516 -2.5293837724341275 4.294485048065619 -0.13527290768596886 -0.01872896223759853 0.03684501070393594 8.86324097743456" Properties=species:S:1:pos:R:3:dft_force:R:3 dft_energy=-8.424893795338958 volume=188.8967778537166 dft_virial="-0.00012147794183291987 -4.177444810499384e-05 2.850241443696981e-05 -4.177444810499387e-05 -0.0001756191480932649 -1.9300482139305786e-05 2.8502414436969825e-05 -1.9300482139305786e-05 -4.005157174083799e-05" id=2371 pbc="T T T"
Si       0.09386478      -0.02612698       0.12239852      -0.00701275       0.00013835      -0.03453063
Si       0.28780638       2.88224797       4.35189360       0.00701276      -0.00013836       0.03453064
4
Lattice="7.150246613121014 -0.23217874365818325 0.1228956173094175 0.15258962089885084 7.278121866638694 -0.1887501728004473 -0.1194494938512887 0.13659890961035753 7.386378739420959" Properties=species:S:1:pos:R:3:dft_force:R:3 dft_energy=-16.84168651862615 volume=384.940063469338 dft_virial="-0.00013039707890363412 -8.355529590116095e-05 4.762233939279213e-05 -8.355529590116098e-05 -0.0001521735921609805 4.799264303812931e-06 4.762233939279213e-05 4.79926430381293e-06 -0.00012935872891421256" id=2311 pbc="T T T"
Si       0.09386455      -0.02612601       0.12239754       0.08212694      -0.02228306      -0.04893738
Si       3.95215636       3.62009456      -0.04424939      -0.07285254       0.01655148      -0.03060776
Si       3.96277320       0.14502620       3.57562100      -0.10099742      -0.04813357       0.04468224
Si       0.10252815       3.57677064       3.57633664       0.09172296       0.05386509       0.03486298
2
Lattice="4.958487829667656 -0.07428643787006502 0.06174047053962955 -2.400145176003836 4.411779989573177 0.02428825303732885 0.06023794929793959 0.11429158088042889 8.730473865487108" Properties=species:S:1:pos:R:3:dft_force:R:3 dft_energy=-8.42505838180368 volume=189.38188253191433 dft_virial="-0.00014056222116976984 2.568375131846269e-06 3.6201455143842675e-06 2.568375131846268e-06 -6.421867934567192e-05 1.1689520105115984e-05 3.6201455143842667e-06 1.1689520105115981e-05 -6.636694777375078e-05" id=2356 pbc="T T T"
Si       0.09386510      -0.02612724       0.12239552      -0.00358087       0.00399318      -0.04617205
Si       0.28781041       2.88224713       4.35189321       0.00358087      -0.00399318       0.04617203
2
Lattice="5.104857719383481 -0.07885583343393263 0.1113292273102043 -2.6576854993436134 4.464668586102573 -0.07627879502051921 -0.05771348306531328 -0.17421723403901282 8.94461566461453" Properties=species:S:1:pos:R:3:dft_force:R:3 dft_energy=-8.424868287323791 volume=201.99867759684997 dft_virial="9.970990965194599e-05 -2.454620708581174e-05 4.414561254914869e-05 -2.4546207085811734e-05 4.3876439764115034e-05 7.745364630572104e-06 4.414561254914869e-05 7.745364630572106e-06 8.651507980579691e-05" id=2361 pbc="T T T"
Si       0.09386334      -0.02612548       0.12239885      -0.00931315       0.00128225      -0.04705491
Si       0.28780563       2.88224793       4.35188928       0.00931315      -0.00128226       0.04705493
2
Lattice="4.84102201912391 -0.16786236854081504 0.020762534314830813 -2.459016210806789 4.446646494819152 -0.10142974582826222 -0.059168402105923903 -0.12385089276267708 8.740961316355465" Properties=species:S:1:pos:R:3:dft_force:R:3 dft_energy=-8.424299508586394 volume=184.50257762435263 dft_virial="-0.00024847466506604373 2.2675654414391e-06 2.0472861707483895e-05 2.2675654414390993e-06 -0.00020551078794291586 -3.190869699889912e-05 2.047286170748388e-05 -3.190869699889911e-05 -0.00011170984667173051" id=2347 pbc="T T T"
Si       0.09386285      -0.02612766       0.12239805      -0.00969369       0.00084692      -0.02939016
Si       0.28780899       2.88224625       4.35189198       0.00969369      -0.00084691       0.02939016
2
Lattice="6.032468961678604 0.15218809189189034 -0.014853568592999739 0.12315711761054321 5.832244674205609 -0.08682388253567844 0.0915242361199826 -0.10490865603465328 5.847247568956977" Properties=species:S:1:pos:R:3:dft_force:R:3 dft_energy=-8.42386887169436 volume=205.5651150925606 dft_virial="6.36284496239046e-05 2.3647769094646407e-05 -2.0358206951730747e-07 2.3647769094646407e-05 0.00016142069360414196 2.0410885413163563e-05 -2.0358206951730744e-07 2.0410885413163556e-05 9.631921689482743e-05" id=2244 pbc="T T T"
Si       0.09386644      -0.02612764       0.12239414       0.00248918      -0.00529725      -0.01263570
Si       3.20508938       2.87303342       2.87303825      -0.00248918       0.00529726       0.01263569
2
Lattice="5.846142589400125 0.07229627280191539 0.04849889502271933 -0.01869069528357486 5.8088591811325365 0.09120415430899348 0.14524580502785264 0.10380959132057092 5.943955323836808" Properties=species:S:1:pos:R:3:dft_force:R:3 dft_energy=-8.422943102297411 volume=201.76589555261467 dft_virial="2.3022751597027865e-05 3.9321363398222045e-06 3.552173739516353e-05 3.932136339822203e-06 2.4013105425671887e-05 -1.5535019380856626e-05 3.552173739516351e-05 -1.5535019380856626e-05 2.9768738345816497e-05" id=2277 pbc="T T T"
Si       0.09386307      -0.02612596       0.12239851       0.02430168      -0.00426919      -0.04129937
Si       3.20508940       2.87303049       2.87303570      -0.02430167       0.00426919       0.04129938
2
Lattice="5.131129561242046 -0.02964662815548896 -0.11127640946502099 -2.4194581203057277 4.364875116331102 -0.04696247209435359 0.20836864802216845 0.19275070410901882 8.726355982186195" Properties=species:S:1:pos:R:3:dft_force:R:3 dft_energy=-8.425547854742044 volume=195.01583058281938 dft_virial="1.3717266410040163e-05 1.8984537135037142e-05 3.871824749742393e-06 1.8984537135037156e-05 7.0279806420121415e-06 -2.8062775209267357e-06 3.8718247497423945e-06 -2.8062775209267344e-06 3.332243698913449e-05" id=2338 pbc="T T T"
Si       0.09386542      -0.02612548       0.12239822      -0.00070726       0.00234162      -0.01416538
Si       0.28780735       2.88224494       4.35189183       0.00070726      -0.00234163       0.01416543
2
Lattice="5.737307895060733 0.042347099493873844 -0.01103745565693046 0.2282011158302422 5.530948895183059 0.06705986060783863 -0.028662175330865167 -0.10495314018762697 5.962807968649263" Properties=species:S:1:pos:R:3:dft_force:R:3 dft_energy=-8.42263101431466 volume=189.19752556868585 dft_virial="-0.00022705024403333937 3.613210501803288e-05 2.3762271951420707e-05 3.6132105018032904e-05 -0.00012801589045877975 1.9128559342333983e-05 2.3762271951420717e-05 1.9128559342333976e-05 -0.00021668904657117457" id=2235 pbc="T T T"
Si       0.09386612      -0.02612611       0.12239282       0.02147552       0.01379968      -0.06487639
Si       3.20508861       2.87303315       2.87303755      -0.02147551      -0.01379968       0.06487637
2
Lattice="5.314995906948749 0.16780554447624757 -0.043693850611110883 -2.720740047635785 4.122482384072055 -0.04379272108195131 -0.22809517778369567 -0.30699874569953634 8.711146540369405" Properties=species:S:1:pos:R:3:dft_force:R:3 dft_energy=-8.425713810867359 volume=194.69948900714536 dft_virial="7.699035990690049e-07 2.0632059326989852e-05 4.644495733417506e-09 2.0632059326989866e-05 -6.967790925552355e-05 -1.5793431226781435e-05 4.6444957334168395e-09 -1.579343122678143e-05 2.2844945799052456e-05" id=2343 pbc="T T T"
Si       0.09386453      -0.02612586       0.12239382      -0.01511731       0.00433848      -0.01445239
Si       0.28781162       2.88224632       4.35188833       0.01511730      -0.00433848       0.01445242
4
Lattice="7.226742329803379 -0.021167578212383104 0.15286640908432475 0.07642611806919504 7.168655380164056 0.1277510985112922 -0.15789419551424283 -0.26542238990285233 7.3477320071380205" Properties=species:S:1:pos:R:3:dft_force:R:3 dft_energy=-16.843307934715153 volume=381.08407523441326 dft_virial="-0.00015556698163500185 5.083031214906566e-06 3.421259835666502e-05 5.083031214906566e-06 -0.0001057590627579536 8.448704782211215e-06 3.421259835666502e-05 8.448704782211215e-06 -0.0001895443015569743" id=2292 pbc="T T T"
Si       0.09386317      -0.02612881       0.12239291       0.06829753      -0.02221493      -0.04426432
Si       3.95215154       3.62009779      -0.04424465      -0.06011776       0.00880865      -0.03055593
Si       3.96276740       0.14502367       3.57562541      -0.07321158      -0.01150686       0.04040754
Si       0.10253149       3.57676897       3.57632958       0.06503183       0.02491304       0.03441285
2
Lattice="5.03335651105398 -0.10030722961297327 -0.05306817720301945 -2.6306701447413143 4.4203383135272105 -0.013905304023662529 -0.012925292055431605 0.03898635386205563 9.011039216641684" Properties=species:S:1:pos:R:3:dft_force:R:3 dft_energy=-8.424907699496677 volume=198.11519197978527 dft_virial="1.0159644105001706e-07 -4.221080987510214e-05 1.2242735688279348e-05 -4.2210809875102125e-05 1.5273642484179273e-05 3.65585374343084e-06 1.2242735688279348e-05 3.6558537434308404e-06 2.602817245193761e-05" id=2335 pbc="T T T"
Si       0.09386670      -0.02612922       0.12239866      -0.00951420       0.00269070      -0.04509000
Si       0.28780901       2.88224606       4.35189413       0.00951420      -0.00269070       0.04508999
4
Lattice="7.438473594286229 -0.17577416049583075 -0.023556267622955058 -0.02742236381502069 7.50945773575351 0.09095051526854622 0.16186959346535684 0.09259257388727853 7.279381236819929" Properties=species:S:1:pos:R:3:dft_force:R:3 dft_energy=-16.84471690559136 volume=406.54662729322706 dft_virial="4.981366821170119e-05 8.59354163547529e-06 1.5712293851275962e-05 8.593541635475288e-06 1.3656884331367025e-05 -1.1804515635956136e-06 1.5712293851275962e-05 -1.1804515635956138e-06 8.928712777323926e-05" id=2301 pbc="T T T"
Si       0.09386769      -0.02612652       0.12239480       0.02868406      -0.04112985      -0.00562705
Si       3.95215103       3.62009654      -0.04424586      -0.01944147       0.04485970      -0.03008245
Si       3.96277258       0.14502480       3.57562134      -0.04424309      -0.03539077       0.02402606
Si       0.10252702       3.57676610       3.57633577       0.03500055       0.03166095       0.01168357
2
Lattice="5.9144427339553385 0.2085288212084917 0.013557178676983968 -0.09298418183208473 5.8435230510461675 -0.09263722811560343 0.006808815507855373 0.0569513565192517 5.887082013006503" Properties=species:S:1:pos:R:3:dft_force:R:3 dft_energy=-8.422997317671566 volume=203.60912615598454 dft_virial="2.5268358402707942e-05 2.936107037144512e-06 2.6835449361281996e-05 2.936107037144513e-06 9.807439383445936e-05 -2.400626910007102e-05 2.6835449361282006e-05 -2.4006269100071023e-05 7.346157310469617e-05" id=2256 pbc="T T T"
Si       0.09386279      -0.02612630       0.12239643       0.02727237      -0.02032700      -0.01975587
Si       3.20508798       2.87303105       2.87303625      -0.02727236       0.02032699       0.01975586
2
Lattice="5.5883719084457555 0.03795632084330586 -0.03794770369217757 0.14868988758176685 5.767009986677979 0.04968020061774539 0.07997982363559879 0.12414455620244393 5.847391150347926" Properties=species:S:1:pos:R:3:dft_force:R:3 dft_energy=-8.422806709331034 volume=188.4003576504585 dft_virial="-0.00013030022290842818 5.4082705120550566e-05 3.137112503758628e-05 5.4082705120550566e-05 -0.00025588228124516244 3.230114246157076e-05 3.137112503758628e-05 3.230114246157076e-05 -0.00022145490304664646" id=2251 pbc="T T T"
Si       0.09386341      -0.02612860       0.12239641       0.03266738      -0.01395953      -0.03954491
Si       3.20509122       2.87303457       2.87303408      -0.03266738       0.01395954       0.03954493
4
Lattice="7.331430587080117 0.05488429849509105 0.12649573454944205 0.1506867989721814 7.329439439354382 0.1360468639175706 -0.025354474311365206 0.23642979595909638 7.222742951227744" Properties=species:S:1:pos:R:3:dft_force:R:3 dft_energy=-16.844835243413762 volume=387.8483601576217 dft_virial="-5.8779071043271676e-05 -7.93770777414454e-06 6.817439522138463e-05 -7.93770777414454e-06 -0.00010431623810125141 -1.6661639285920223e-05 6.817439522138466e-05 -1.666163928592023e-05 -5.571359263020215e-05" id=2300 pbc="T T T"
Si       0.09386797      -0.02613077       0.12239355       0.04448933      -0.02844377      -0.00844628
Si       3.95215245       3.62009756      -0.04424282      -0.04375753       0.03560989      -0.02913019
Si       3.96277101       0.14502658       3.57562592      -0.04236613      -0.01779502       0.02383928
Si       0.10252739       3.57677085       3.57633445       0.04163445       0.01062884       0.01373723
4
Lattice="7.119567117357588 -0.038242519864880434 -0.1441516347044331 -0.01664629507564847 7.2921617947514745 -0.16326710262630134 -0.005052825301069369 0.1170379954463925 7.329711163073843" Properties=species:S:1:pos:R:3:dft_force:R:3 dft_energy=-16.841481891377594 volume=380.66318913769214 dft_virial="-0.00011293298216570107 -4.0976125871337044e-05 -3.048988194811033e-05 -4.0976125871337044e-05 -0.00017582358699762198 2.0856057030977304e-05 -3.048988194811033e-05 2.0856057030977304e-05 -0.0001843569351276149" id=2309 pbc="T T T"
Si       0.09386347      -0.02613024       0.12239858       0.07973407      -0.02536202      -0.02920771
Si       3.95215492       3.62009722      -0.04424694      -0.08408500       0.02315738      -0.04008659
Si       3.96277367       0.14502348       3.57562480      -0.08723745      -0.03722570       0.02832891
Si       0.10252581       3.57677120       3.57633122       0.09158839       0.03943033       0.04096544
2
Lattice="5.846620255472646 0.12240691523632803 0.06198382946995885 0.02397004205520312 5.879530157186445 -0.23241393897165416 -0.20681283650376406 0.011325582199152152 5.898790283643153" Properties=species:S:1:pos:R:3:dft_force:R:3 dft_energy=-8.423048061499534 volume=202.85251062363875 dft_virial="7.804020096857035e-05 6.484643639493029e-07 4.610976928721066e-05 6.484643639493027e-07 3.929472261807139e-05 -3.3808557084951966e-06 4.610976928721066e-05 -3.3808557084951953e-06 8.423388983703304e-06" id=2257 pbc="T T T"
Si       0.09386289      -0.02612911       0.12239342       0.03034633      -0.02129697      -0.01565026
Si       3.20509346       2.87303476       2.87303672      -0.03034635       0.02129696       0.01565027
4
Lattice="7.427872533083258 0.27967203982094424 -0.020501903287722428 -0.11496506037398427 7.497986077724925 0.036673234599207453 0.30615449165609854 0.13631388221898022 7.1437434419165555" Properties=species:S:1:pos:R:3:dft_force:R:3 dft_energy=-16.844809324639584 volume=398.10733451350865 dft_virial="-7.22598053707707e-06 -5.023593080264912e-07 4.769215286831638e-05 -5.023593080264917e-07 -2.7470712314411522e-05 2.2191507777451466e-05 4.7692152868316404e-05 2.2191507777451466e-05 4.757888810998399e-05" id=2284 pbc="T T T"
Si       0.09386680      -0.02613060       0.12239510       0.03831583      -0.04461945       0.00336442
Si       3.95215124       3.62009786      -0.04424463      -0.03157114       0.03931958      -0.00713231
Si       3.96277394       0.14502269       3.57562185      -0.04291852      -0.03506246       0.01436036
Si       0.10253079       3.57677034       3.57633534       0.03617383       0.04036239      -0.01059249
2
Lattice="5.711346043875651 -0.07476548344265765 0.11880866882516686 -0.07347888230796744 5.740964458420099 0.14204041378073992 0.08169200999081595 0.08026373608856256 5.879907214240092" Properties=species:S:1:pos:R:3:dft_force:R:3 dft_energy=-8.420831561934166 volume=192.639425315812 dft_virial="-0.00015352745717885191 -7.765467048723778e-05 0.00011376084918422924 -7.765467048723778e-05 -0.00020696556084089804 3.53249948838203e-05 0.00011376084918422924 3.53249948838203e-05 -0.00015880561822548682" id=2246 pbc="T T T"
Si       0.09386746      -0.02612930       0.12239664       0.05611207       0.02834278      -0.07996773
Si       3.20509252       2.87303066       2.87303759      -0.05611206      -0.02834279       0.07996774
2
Lattice="5.086108083542079 0.26549395383119195 -0.06337264589073006 -2.4839825731666787 4.250488463329343 0.15066716471774655 0.1625767289811918 0.2675384485254246 8.88717641860442" Properties=species:S:1:pos:R:3:dft_force:R:3 dft_energy=-8.424245188212144 volume=197.8752528033214 dft_virial="6.867123859989636e-05 3.489550950369922e-05 8.304969356879302e-06 3.489550950369923e-05 -7.366938605961444e-05 1.799794177474686e-05 8.304969356879302e-06 1.799794177474686e-05 2.6199206670121918e-05" id=2330 pbc="T T T"
Si       0.09386330      -0.02612758       0.12239433       0.00068936       0.00685261      -0.06557103
Si       0.28780655       2.88224668       4.35189464      -0.00068936      -0.00685260       0.06557096
4
Lattice="7.332061302071471 0.05197347775628499 -0.25786359878791676 0.06859320328262121 7.262364876677294 0.11603109267540816 0.012125163117003807 0.09022516279286985 7.397059206915686" Properties=species:S:1:pos:R:3:dft_force:R:3 dft_energy=-16.84462366719118 volume=393.79743597037503 dft_virial="-4.165431538064859e-05 1.465742918881621e-06 -9.894690507180861e-07 1.46574291888162e-06 2.423821985486073e-06 3.907138805141876e-06 -9.894690507180861e-07 3.9071388051418775e-06 -6.362960663086565e-05" id=2289 pbc="T T T"
Si       0.09386290      -0.02612601       0.12239357       0.04264075      -0.01603032      -0.02576722
Si       3.95215757       3.62009369      -0.04424767      -0.05304539       0.02082284      -0.04808267
Si       3.96277073       0.14502560       3.57562750      -0.03310039      -0.01350077       0.03897184
Si       0.10253172       3.57676841       3.57633311       0.04350514       0.00870837       0.03487821
4
Lattice="7.145614025115539 -0.29691751035892777 0.045511615964910906 0.1183176045944216 7.346740259970556 0.376889926268118 -0.19317986091192135 -0.12200143670176708 7.306012447895613" Properties=species:S:1:pos:R:3:dft_force:R:3 dft_energy=-16.842123911858014 volume=384.214298594646 dft_virial="-0.00011831075469283616 -0.00010642473079977982 8.4310695150015e-06 -0.00010642473079977985 -0.00020497788194268345 -3.1292963127491156e-05 8.431069515001495e-06 -3.129296312749114e-05 -0.00014773702100750094" id=2299 pbc="T T T"
Si       0.09386810      -0.02612658       0.12239265       0.07516624      -0.02733097      -0.02507061
Si       3.95215430       3.62009586      -0.04424616      -0.07798613       0.02245987      -0.04995810
Si       3.96277254       0.14502227       3.57562654      -0.10023101      -0.05668063       0.04170801
Si       0.10252970       3.57676918       3.57633364       0.10305092       0.06155171       0.03332069
4
Lattice="7.365076650503025 0.04019649667774348 0.2906895021754761 -0.18656464784553387 7.264081938525913 -0.19454673761238567 0.14199303834679555 0.19437949685035627 7.4235219300101" Properties=species:S:1:pos:R:3:dft_force:R:3 dft_energy=-16.8443159187058 volume=397.1849898249633 dft_virial="-4.3384131086155206e-05 -2.3801616410591757e-05 3.891636312549439e-05 -2.3801616410591764e-05 3.2593663988441e-05 -2.6697054937758473e-05 3.8916363125494393e-05 -2.6697054937758473e-05 -3.963270502001657e-05" id=2304 pbc="T T T"
Si       0.09386117      -0.02612425       0.12239278       0.06140119      -0.01437648      -0.03597984
Si       3.95215239       3.62009730      -0.04424981      -0.03755943       0.01551764      -0.03638560
Si       3.96277110       0.14502223       3.57562346      -0.07067590      -0.01456251       0.04464502
Si       0.10252673       3.57677217       3.57633528       0.04683410       0.01342119       0.02772044
2
Lattice="5.084856328957128 0.08285919933169107 0.022618528828132013 -2.514543318540433 4.179916697896977 0.21856869044423224 0.157899656822743 -0.12406830575331526 8.385535995451997" Properties=species:S:1:pos:R:3:dft_force:R:3 dft_energy=-8.423254955805028 volume=180.10852335592412 dft_virial="-0.00024090396127802953 6.885139011075019e-05 3.531670128156903e-05 6.885139011075019e-05 -0.00026210154861198184 7.884704234915021e-05 3.531670128156902e-05 7.884704234915021e-05 -0.00031372189615599727" id=2336 pbc="T T T"
Si       0.09386610      -0.02612783       0.12239633      -0.00131383       0.00092200      -0.06113439
Si       0.28780950       2.88224511       4.35188829       0.00131383      -0.00092200       0.06113439
4
Lattice="7.29395068509009 -0.011824639971404571 0.0489678683550677 -0.22825992410724052 7.099405874998352 -0.1532702057626348 -0.09868592018708934 -0.12637144726222543 7.5161645249478966" Properties=species:S:1:pos:R:3:dft_force:R:3 dft_energy=-16.843978612931586 volume=389.08139351570253 dft_virial="-4.6874792506434784e-05 -6.418822635700079e-05 2.1791443043484646e-05 -6.418822635700079e-05 -5.648722692043561e-05 6.589516596951254e-06 2.1791443043484646e-05 6.589516596951254e-06 -0.00012459326323667195" id=2305 pbc="T T T"
Si       0.09386763      -0.02612410       0.12239563       0.06242659       0.00199647      -0.05171074
Si       3.95215286       3.62009301      -0.04424894      -0.06494195      -0.02955985      -0.04869965
Si       3.96277082       0.14502605       3.57562320      -0.05921282       0.00761041       0.05169879
Si       0.10253042       3.57676892       3.57632990       0.06172816       0.01995294       0.04871158
2
Lattice="4.873748126074828 0.1845685490373529 -0.0868898906692116 -2.309576366515203 4.2456762379584605 0.22613827189533947 -0.05390969114357655 -0.14726964501554313 9.058097006521763" Properties=species:S:1:pos:R:3:dft_force:R:3 dft_energy=-8.422054397086342 volume=191.40523549432905 dft_virial="-0.00024397844342159662 9.641856903890426e-05 -8.583899375543127e-07 9.64185690389043e-05 -0.00017721810301878497 1.609993552920649e-05 -8.583899375543123e-07 1.609993552920649e-05 -5.7039820792199914e-05" id=2346 pbc="T T T"
Si       0.09386699      -0.02612939       0.12239629      -0.00261289       0.00040674      -0.10301722
Si       0.28781115       2.88224683       4.35188773       0.00261289      -0.00040674       0.10301726
2
Lattice="6.039801533679161 -0.009927014791577864 -0.05512153471277657 -0.02184852212413075 5.668524207384749 -0.325747209910741 -0.03892027013947747 0.0998159953068768 5.743513132044382" Properties=species:S:1:pos:R:3:dft_force:R:3 dft_energy=-8.42443047494875 volume=196.82225808951668 dft_virial="-5.3099735547293213e-05 -2.1020702245544764e-06 1.1327032515147288e-05 -2.1020702245544755e-06 2.0010437351639743e-05 -4.263788094756957e-05 1.1327032515147281e-05 -4.263788094756956e-05 -8.915648608793292e-06" id=2237 pbc="T T T"
Si       0.09386721      -0.02612888       0.12239849       0.02491236       0.00405566       0.01178372
Si       3.20508978       2.87302986       2.87303638      -0.02491235      -0.00405566      -0.01178372
4
Lattice="7.280273489906931 -0.08648528140866799 -0.12971945613996363 0.04078835889997627 7.2871704611385 -0.06793083537867864 0.1592654185847938 0.304366073749014 7.209722341386585" Properties=species:S:1:pos:R:3:dft_force:R:3 dft_energy=-16.843956547594686 volume=382.820307361164 dft_virial="-7.764219152206452e-05 -2.326891967390566e-05 -2.4876406745354633e-08 -2.326891967390566e-05 -0.00015132731743428115 -7.5787623293491785e-06 -2.4876406745354935e-08 -7.5787623293491785e-06 -0.00013125485040059264" id=2324 pbc="T T T"
Si       0.09386598      -0.02612439       0.12239577       0.05213227      -0.02169908      -0.01260289
Si       3.95215515       3.62009229      -0.04424665      -0.04877081       0.02890761      -0.02461550
Si       3.96276948       0.14502654       3.57562465      -0.05862840      -0.03096385       0.01883588
Si       0.10253165       3.57676760       3.57633377       0.05526695       0.02375537       0.01838256
2
Lattice="4.9959459431154665 -0.042189704204953764 0.044668306784535414 -2.661201599360137 4.541997161779844 0.05637221215383764 -0.17191832551662184 0.024426977832137632 8.488915447312081" Properties=species:S:1:pos:R:3:dft_force:R:3 dft_energy=-8.425830279381652 volume=191.6992481109526 dft_virial="-1.2590905869111781e-05 -7.535652457599086e-06 -2.1379721328541184e-08 -7.53565245759909e-06 -4.290263657148773e-05 1.1063209599523951e-05 -2.137972132854024e-08 1.1063209599523951e-05 -0.00010422439916483358" id=2344 pbc="T T T"
Si       0.09386659      -0.02612890       0.12239180      -0.00715237       0.00411624      -0.02273287
Si       0.28780782       2.88224415       4.35189387       0.00715236      -0.00411624       0.02273288
4
Lattice="7.15330951901833 0.24299117072819326 -0.5223240236070283 0.12263224617942842 7.2622660440009765 -0.14850692429838058 -0.007589744828856974 0.024810630029959153 7.247832429244653" Properties=species:S:1:pos:R:3:dft_force:R:3 dft_energy=-16.839027323493095 volume=376.29963994722414 dft_virial="-0.0002252414244507917 3.982524397029552e-05 -9.26303242282934e-05 3.9825243970295496e-05 -0.000169672678150571 5.137775963114997e-06 -9.263032422829336e-05 5.137775963114999e-06 -0.00023505444241848263" id=2316 pbc="T T T"
Si       0.09386483      -0.02612461       0.12239372       0.10653381      -0.03658887       0.00730008
Si       3.95215587       3.62009431      -0.04424680      -0.12465090       0.02921188      -0.05414463
Si       3.96277033       0.14502635       3.57562395      -0.09468431      -0.00250691      -0.00687492
Si       0.10253176       3.57677328       3.57633239       0.11280139       0.00988390       0.05371948
2
Lattice="5.890399861855292 -0.14988451574597153 -0.03428709631890374 -0.09357135753352844 6.000973066434818 0.00870523126296232 0.10308705453682027 -0.17051628101297825 5.896087899695893" Properties=species:S:1:pos:R:3:dft_force:R:3 dft_energy=-8.423004494591867 volume=208.36226778987464 dft_virial="0.00015296401984751202 -1.725387044631337e-05 1.6571788142715182e-05 -1.725387044631337e-05 0.00010491510818391012 1.8628372551065625e-05 1.657178814271519e-05 1.8628372551065632e-05 0.00013412912883906672" id=2254 pbc="T T T"
Si       0.09386682      -0.02612898       0.12239561       0.01463002       0.00820666      -0.01591967
Si       3.20509025       2.87303398       2.87303589      -0.01463003      -0.00820666       0.01591966
4
Lattice="7.155695184867103 -0.11369726201423408 0.057915589274342 0.25035843810039804 7.435324535774892 0.18404397996241806 -0.18265990675421964 -0.13854527082693835 7.204647992104957" Properties=species:S:1:pos:R:3:dft_force:R:3 dft_energy=-16.842829381679728 volume=383.79070140236206 dft_virial="-9.706299823203664e-05 -3.864217414086808e-05 2.7970040702958268e-05 -3.8642174140868094e-05 -0.00018333804078664317 -3.63562938741382e-05 2.7970040702958282e-05 -3.63562938741382e-05 -0.00012036823321902318" id=2279 pbc="T T T"
Si       0.09386570      -0.02612575       0.12239554       0.08220833      -0.04689778      -0.01213254
Si       3.95215746       3.62009522      -0.04424285      -0.07707453       0.04371731      -0.02700303
Si       3.96276867       0.14502446       3.57562747      -0.08606953      -0.05050917       0.02823309
Si       0.10253119       3.57676746       3.57633041       0.08093568       0.05368955       0.01090252
4
Lattice="7.253490439337132 -0.12894884472360252 -0.1437572110677012 -0.009634995413539444 7.305474858607679 -0.10659381930628832 0.09442213113209623 -0.13786931579215972 7.17836825119119" Properties=species:S:1:pos:R:3:dft_force:R:3 dft_energy=-16.843249373364777 volume=380.3678665921157 dft_virial="-0.0001157014906686104 -3.219506649428264e-05 6.751531539853537e-06 -3.219506649428264e-05 -0.00019452006974235065 1.4858966098326081e-05 6.7515315398535354e-06 1.4858966098326075e-05 -0.00012388776456707457" id=2322 pbc="T T T"
Si       0.09386525      -0.02612518       0.12239374       0.05492268      -0.03063629      -0.01503400
Si       3.95215356       3.62009790      -0.04424457      -0.06135329       0.02594825      -0.00722882
Si       3.96276748       0.14502592       3.57562269      -0.06637942      -0.03437457       0.00995751
Si       0.10252707       3.57677332       3.57633026       0.07280998       0.03906262       0.01230536
2
Lattice="5.67925295738196 -0.22838220828476508 0.07342733057928764 -0.15285340776858736 5.856843862779484 -0.12927261150053465 0.22024141931796723 -0.008634801170297517 5.8782290996469015" Properties=species:S:1:pos:R:3:dft_force:R:3 dft_energy=-8.422753804306632 volume=195.2249240146056 dft_virial="-1.7876463368543286e-05 -6.157141589600098e-05 5.1401910973650936e-05 -6.1571415896001e-05 -0.00013822662838573814 3.044351742218974e-05 5.140191097365095e-05 3.044351742218974e-05 -0.00013386505135949014" id=2272 pbc="T T T"
Si       0.09386383      -0.02612554       0.12239794       0.03670348       0.03097424      -0.03968137
Si       3.20509156       2.87303298       2.87303674      -0.03670348      -0.03097424       0.03968137
2
Lattice="5.879672000029359 0.0075389300933657874 -0.01522900048217914 0.1980268761407577 5.946547650134569 0.12188829879868573 0.0515290519662955 0.1033299788301409 5.709658386165532" Properties=species:S:1:pos:R:3:dft_force:R:3 dft_energy=-8.424312469019878 volume=199.552892170993 dft_virial="-1.960247486129533e-06 5.993357332372031e-05 -5.529748663601952e-07 5.993357332372031e-05 -5.923184725199063e-06 1.8800697943491666e-05 -5.52974866360195e-07 1.8800697943491666e-05 5.493108940524125e-05" id=2275 pbc="T T T"
Si       0.09386215      -0.02612792       0.12239372       0.01088773      -0.01746349      -0.01102508
Si       3.20509110       2.87303009       2.87303474      -0.01088774       0.01746349       0.01102508
2
Lattice="5.685594745975376 -0.30631961592486834 0.09172798639073974 0.12148028803111778 5.8359643733148 0.007222684426409664 0.021447371062395193 0.057121091719765586 5.898434164754967" Properties=species:S:1:pos:R:3:dft_force:R:3 dft_energy=-8.422761302793663 volume=195.9217750219133 dft_virial="-1.6581813078549604e-05 -6.574299019719351e-05 8.231472429771279e-05 -6.574299019719351e-05 -0.00012691617730480422 4.880325934731408e-05 8.231472429771279e-05 4.880325934731408e-05 -9.084867910011832e-05" id=2243 pbc="T T T"
Si       0.09386289      -0.02612824       0.12239329       0.03147293       0.03087775      -0.05099958
Si       3.20509001       2.87303121       2.87303527      -0.03147293      -0.03087775       0.05099958
4
Lattice="7.0957474219128605 0.020299608106081238 0.054461094329481104 0.2659897801717713 7.236163313733305 -0.23072272857642032 0.3649944593615625 0.05754637458411262 7.2440514652145005" Properties=species:S:1:pos:R:3:dft_force:R:3 dft_energy=-16.8392416840683 volume=371.8633552408757 dft_virial="-0.0002094152563694145 1.909969412183678e-05 5.298266031262461e-05 1.9099694121836782e-05 -0.000249231692059437 3.9726904382472826e-05 5.298266031262461e-05 3.972690438247282e-05 -0.00029657655071228676" id=2303 pbc="T T T"
Si       0.09386593      -0.02612425       0.12239835       0.11008018      -0.02892366      -0.04418127
Si       3.95215303       3.62009182      -0.04424457      -0.10729556       0.01831183       0.01769339
Si       3.96276848       0.14502463       3.57562299      -0.11140868      -0.01506242       0.03186954
Si       0.10252581       3.57676741       3.57633483       0.10862407       0.02567429      -0.00538161
4
Lattice="7.41808728554555 -0.1067180876962437 -0.279513869744313 0.059234391342195825 7.157940462962077 0.1781343717337046 0.005444074197911889 0.04957477279725252 7.24121867126738" Properties=species:S:1:pos:R:3:dft_force:R:3 dft_energy=-16.845506262532886 volume=384.4861072610435 dft_virial="-0.00016044599685620555 -4.3117999805287884e-05 1.3187986343218069e-05 -4.3117999805287884e-05 -2.0119724392315255e-05 4.9650336000866684e-05 1.3187986343218074e-05 4.965033600086671e-05 -8.116390192467685e-05" id=2302 pbc="T T T"
Si       0.09386273      -0.02612518       0.12239726       0.03939175      -0.00450621      -0.01813651
Si       3.95215300       3.62009650      -0.04424302      -0.04505975       0.00972342      -0.02764002
Si       3.96277158       0.14502301       3.57562153      -0.03041220      -0.00200683       0.02050243
Si       0.10252798       3.57677164       3.57633659       0.03608002      -0.00321036       0.02527401
2
Lattice="6.07859628820944 0.13327079954871163 0.014411580549711018 -0.01312654788770425 6.00653224385098 0.0431759333721347 -0.04669483018332284 0.24677897556691564 5.8109828175568685" Properties=species:S:1:pos:R:3:dft_force:R:3 dft_energy=-8.422564153822568 volume=212.11557291214172 dft_virial="0.00011700457548416043 2.381860755360624e-05 5.427575322198105e-06 2.381860755360625e-05 0.0001838569122605098 -4.092548122892274e-05 5.427575322198105e-06 -4.0925481228922724e-05 0.00019111466656762796" id=2260 pbc="T T T"
Si       0.09386684      -0.02612597       0.12239295       0.01645129      -0.02212690      -0.00433274
Si       3.20508959       2.87302930       2.87303767      -0.01645128       0.02212690       0.00433275
2
Lattice="5.038577219623961 -0.07331432495703503 -0.09488449042300841 -2.5292581245441013 4.4557924480089 0.05894070900516774 -0.004693815131912965 -0.06517070140105025 8.845107997022145" Properties=species:S:1:pos:R:3:dft_force:R:3 dft_energy=-8.425297919152166 volume=196.9418250882894 dft_virial="1.2504803971591894e-05 -2.177553902035249e-05 1.7094704981038586e-05 -2.1775539020352496e-05 1.6586358744713186e-05 7.587426325057936e-06 1.7094704981038586e-05 7.587426325057936e-06 3.620188967211415e-05" id=2367 pbc="T T T"
Si       0.09386665      -0.02612698       0.12239960      -0.00782342       0.00249077      -0.03993680
Si       0.28781149       2.88224634       4.35188933       0.00782342      -0.00249078       0.03993679
2
Lattice="5.7523184809974275 0.06233743502239882 0.005302117971430001 0.21300182184274216 5.857825046377911 -0.18439346591190633 0.1838892869818562 0.16960359998656774 5.873860430791991" Properties=species:S:1:pos:R:3:dft_force:R:3 dft_energy=-8.423949358547937 volume=198.02031341805107 dft_virial="5.3808144326490724e-05 1.807569100100952e-05 -7.374908458006626e-06 1.8075691001009527e-05 -2.6499532557512017e-05 6.862033347094103e-06 -7.374908458006626e-06 6.862033347094102e-06 -5.724487534939342e-05" id=2232 pbc="T T T"
Si       0.09386561      -0.02612690       0.12239595       0.01341869      -0.02362269      -0.01867845
Si       3.20508938       2.87303073       2.87303769      -0.01341869       0.02362270       0.01867845
2
Lattice="5.584702702818615 -0.019687299047179998 -0.017915945367000786 -0.07770807047761867 5.694584910143409 0.1659949978762436 -0.0348778813972455 -0.16257013383701685 5.736448995639829" Properties=species:S:1:pos:R:3:dft_force:R:3 dft_energy=-8.418980317895402 volume=182.57204594861395 dft_virial="-0.0002621375643552072 -8.543281535135791e-05 4.5972774298710496e-05 -8.543281535135794e-05 -0.0005033439748641462 3.605600123577341e-05 4.5972774298710496e-05 3.6056001235773394e-05 -0.0004182005926283369" id=2268 pbc="T T T"
Si       0.09386321      -0.02612820       0.12239828       0.07734549       0.04774755      -0.05355908
Si       3.20508814       2.87303281       2.87303714      -0.07734548      -0.04774756       0.05355908
2
Lattice="5.079805034334219 -0.032888132068843286 -0.006857702722699443 -2.5984858600648493 4.40751478322359 -0.07918714021810201 -0.21213863274353562 0.033625956736942166 8.77481218829576" Properties=species:S:1:pos:R:3:dft_force:R:3 dft_energy=-8.425959271600567 volume=195.71931228601892 dft_virial="2.042138966759818e-05 -2.5459253801301144e-05 6.584653709199757e-07 -2.545925380130113e-05 1.7040091560716175e-05 3.3519724930611344e-05 6.58465370919976e-07 3.351972493061136e-05 1.565173483188993e-05" id=2357 pbc="T T T"
Si       0.09386154      -0.02612567       0.12239845      -0.01143412       0.00357458      -0.02212124
Si       0.28781145       2.88224466       4.35189155       0.01143412      -0.00357458       0.02212128
4
Lattice="7.28440363753039 -0.07904079982701098 0.2233815016302129 -0.20161023151005683 7.296091499124896 0.24299757689975576 -0.20273915389690828 -0.18354730324508264 7.027358875969536" Properties=species:S:1:pos:R:3:dft_force:R:3 dft_energy=-16.84337904491169 volume=374.04328740306016 dft_virial="-0.00025571535363423843 -4.136909499712387e-06 1.9709161907421298e-05 -4.136909499712388e-06 -0.0002248073067468036 -2.5338221607920156e-05 1.970916190742129e-05 -2.5338221607920142e-05 -0.0001710686380435652" id=2294 pbc="T T T"
Si       0.09386192      -0.02612733       0.12239618       0.06599821      -0.02701339      -0.00137897
Si       3.95215748       3.62009403      -0.04424652      -0.06622754       0.03166385       0.00773122
Si       3.96276753       0.14502654       3.57562654      -0.07724805      -0.03806628      -0.00020679
Si       0.10252747       3.57677039       3.57633005       0.07747729       0.03341574      -0.00614550
4
Lattice="7.195905382059249 -0.10952451996392544 0.2784081342970107 0.11917264897403101 7.475083636443829 0.06375571227345296 -0.2832986699184973 -0.06479113101165791 7.456657257153306" Properties=species:S:1:pos:R:3:dft_force:R:3 dft_energy=-16.84247625102206 volume=401.81001321566816 dft_virial="-3.6017947055405795e-05 -3.1022148984723994e-05 6.765203773391547e-05 -3.102214898472398e-05 -1.0147455862005457e-05 -2.3345832887944307e-05 6.765203773391547e-05 -2.334583288794432e-05 -1.528587354826815e-05" id=2320 pbc="T T T"
Si       0.09386784      -0.02612654       0.12239675       0.07352450      -0.04699570      -0.05595359
Si       3.95215542       3.62009529      -0.04424280      -0.05688401       0.03093905      -0.04342077
Si       3.96277320       0.14502115       3.57562399      -0.08415433      -0.03936505       0.06462968
Si       0.10253136       3.57677083       3.57633515       0.06751384       0.05542156       0.03474474
2
Lattice="5.849259862718045 0.33129419859340004 -0.15322303819856414 -0.10127442923807924 5.740746384025318 -0.08833643822309015 -0.015995567884633584 -0.039970164179797055 5.802857486549771" Properties=species:S:1:pos:R:3:dft_force:R:3 dft_energy=-8.423116517470493 volume=195.01465340994804 dft_virial="-9.22651021402138e-05 1.4458711510336393e-05 6.2677052753718796e-06 1.4458711510336386e-05 -3.1891827821513605e-05 1.617813654567164e-05 6.2677052753718796e-06 1.6178136545671647e-05 -0.00011184084329865993" id=2271 pbc="T T T"
Si       0.09386659      -0.02612660       0.12239522       0.04424284      -0.02581214      -0.00083554
Si       3.20508946       2.87303139       2.87303531      -0.04424285       0.02581212       0.00083556
2
Lattice="5.887201746053759 0.020420286016399843 -0.23731426337446623 -0.050292623060214106 5.997743770152229 0.063058630100601 0.0579595065094783 -0.10624251921972037 5.846000009564021" Properties=species:S:1:pos:R:3:dft_force:R:3 dft_energy=-8.423596853054297 volume=206.54858548355548 dft_virial="0.0001375643365507373 2.6782270707600144e-05 3.3770887451438776e-05 2.678227070760015e-05 7.041975104318758e-05 1.3357622352026267e-06 3.377088745143879e-05 1.3357622352026275e-06 0.0001761910402644274" id=2261 pbc="T T T"
Si       0.09386685      -0.02612902       0.12239391       0.01339402      -0.00661704      -0.00379491
Si       3.20509122       2.87303444       2.87303703      -0.01339401       0.00661704       0.00379491
2
Lattice="5.090616270876771 0.16605758560549122 -0.05215714023833737 -2.4968159867379307 4.2536247850866005 0.19302108612293029 0.13607628695333104 -0.13897452211614708 8.62248716684888" Properties=species:S:1:pos:R:3:dft_force:R:3 dft_energy=-8.424735963998558 volume=190.4356659770928 dft_virial="-3.740358722390334e-05 6.0570451990728514e-05 1.604142690012929e-05 6.05704519907285e-05 -0.00011472614357210945 3.577741089944024e-05 1.6041426900129285e-05 3.5777410899440246e-05 -7.90758487342043e-05" id=2368 pbc="T T T"
Si       0.09386600      -0.02612715       0.12239888      -0.00238622       0.00099074      -0.06560653
Si       0.28780937       2.88224689       4.35189351       0.00238623      -0.00099074       0.06560649
2
Lattice="5.180695641299125 -0.15231219020649453 0.03786546281123385 -2.665659198726472 4.379135235331924 -0.07724920718003704 0.010911278643589196 -0.044776720372305186 8.560993418952082" Properties=species:S:1:pos:R:3:dft_force:R:3 dft_energy=-8.425412347172617 volume=190.7320231366048 dft_virial="-4.5059884550738195e-05 -4.042040622154573e-05 -2.8880207013285464e-06 -4.042040622154573e-05 -6.562378494405555e-05 -3.159550134760104e-05 -2.8880207013285456e-06 -3.159550134760104e-05 -6.061832408126165e-05" id=2365 pbc="T T T"
Si       0.09386500      -0.02612820       0.12239378      -0.00617891       0.00085360      -0.00268552
Si       0.28781047       2.88224451       4.35189436       0.00617890      -0.00085359       0.00268552
2
Lattice="5.948018197210231 0.06679953193691017 -0.05105352128429467 -0.10509050437962603 5.799559347544461 0.10339345473066709 -0.18429841268783767 0.15137454589797772 5.972513394155467" Properties=species:S:1:pos:R:3:dft_force:R:3 dft_energy=-8.42287866056928 volume=205.92093694659627 dft_virial="4.3532132782197424e-05 1.7874126750831082e-05 1.4591206563057466e-05 1.7874126750831075e-05 0.0001149419487688646 7.81244534893084e-08 1.4591206563057466e-05 7.812445348930848e-08 7.585298904436487e-05" id=2273 pbc="T T T"
Si       0.09386196      -0.02612713       0.12239354       0.02898041      -0.00304133      -0.02212580
Si       3.20509365       2.87303075       2.87303852      -0.02898040       0.00304133       0.02212579
2
Lattice="5.850547389818537 0.0495506220973798 -0.03356100685003878 0.13427343153865431 5.899274525962588 -0.046908463721711785 0.2307788534423217 -0.042769925714258854 5.6244595925079865" Properties=species:S:1:pos:R:3:dft_force:R:3 dft_energy=-8.424550120553102 volume=194.11870305079626 dft_virial="-0.00010696267776132307 4.179907471360134e-05 6.654205167253122e-05 4.179907471360134e-05 -8.354136762308866e-05 -4.1810726578702065e-05 6.654205167253122e-05 -4.1810726578702065e-05 1.2185019218400457e-05" id=2250 pbc="T T T"
Si       0.09386377      -0.02612665       0.12239662       0.00378768      -0.01065600      -0.00315307
Si       3.20509224       2.87303478       2.87303444      -0.00378768       0.01065600       0.00315307
