2
Lattice="4.9698425136491275 -0.09043898530387126 0.047950761063010376 -2.5409056215885832 4.50316534972026 -0.07032659236495671 0.29239991218813616 0.12003453416221159 8.905262269247288" Properties=species:S:1:pos:R:3:dft_force:R:3 dft_energy=-8.424949042398937 volume=197.21961943574013 dft_virial="-3.550816175144321e-05 -1.1546452245611244e-05 4.490814185764357e-05 -1.1546452245611248e-05 4.562257762506981e-05 -1.1856537291725974e-05 4.490814185764357e-05 -1.1856537291725976e-05 5.022019815072397e-05" id=2358 pbc="T T T"
Si       0.09386634      -0.02612767       0.12239873       0.00032230       0.00071951      -0.00481680
Si       0.28781009       2.88224591       4.35188943      -0.00032230      -0.00071951       0.00481680
2
Lattice="5.035897058855927 0.17414992199445364 0.023995137618138148 -2.5211421287840583 4.428009203195859 -0.04208344490496605 -0.20360595237301288 -0.08827037339777323 8.625299570651116" Properties=species:S:1:pos:R:3:dft_force:R:3 dft_energy=-8.425808232319659 volume=196.13229643697184 dft_virial="2.8194894154174393e-05 3.4431928983150977e-06 1.0938048302835126e-05 3.443192898315104e-06 7.58798690456658e-05 8.515610195705371e-06 1.093804830283513e-05 8.515610195705373e-06 -1.6619146710700566e-05" id=2374 pbc="T T T"
Si       0.09386551      -0.02612953       0.12239505      -0.00119851       0.00050479      -0.00127227
Si       0.28780999       2.88224642       4.35188977       0.00119851      -0.00050479       0.00127227
2
Lattice="7.014755971190965 0.0 0.0 3.1818471493260114 6.000222486115377 0.0 3.8395927831677557 2.144461206225324 5.718075037352002" Properties=species:S:1:pos:R:3:dft_force:R:3 dft_energy=-8.451520452397093 volume=240.6743301904482 dft_virial="-0.0004086783277563329 0.009728567770154968 0.012466452398173613 0.009728567770154968 -0.0006479404714826779 0.006958732631322644 0.012466452398173613 0.006958732631322645 -0.0005510321678490139" id=244 pbc="T T T"
Si       0.00000000       0.00000000       0.00000000      -0.00237266       0.01168867       0.01273645
Si       3.57710576       2.06524251       1.46035062       0.00237266      -0.01168867      -0.01273645
4
Lattice="7.373688472603647 0.06179791821381817 -0.04628835009391584 0.22600300529933876 7.512090804546519 0.01886587289532767 0.07144882512132696 -0.0268562774571278 7.449743486256488" Properties=species:S:1:pos:R:3:dft_force:R:3 dft_energy=-16.84346879534871 volume=412.57972829929946 dft_virial="6.6295549882136e-05 3.1669143588469376e-06 1.1264612941073422e-05 3.1669143588469367e-06 5.387093567752047e-05 -2.595733412110838e-06 1.1264612941073418e-05 -2.595733412110838e-06 9.946251899044467e-05" id=2296 pbc="T T T"
Si       0.09386753      -0.02612520       0.12239410       0.00571719      -0.00581444      -0.00242526
Si       3.95215320       3.62009225      -0.04424454      -0.00449548       0.00454558      -0.00453608
Si       3.96277384       0.14502667       3.57562526      -0.00350891      -0.00295024       0.00371283
Si       0.10253059       3.57676873       3.57633625       0.00228720       0.00421909       0.00324851
2
Lattice="6.664963886070486 0.0 0.0 3.2104424850438487 5.86409984418021 0.0 2.694817483856835 2.1785424168829497 5.551233007534917" Properties=species:S:1:pos:R:3:dft_force:R:3 dft_energy=-8.430566088193041 volume=216.96446683940766 dft_virial="-0.0011955384457850698 0.011650213928694735 0.01025646012585418 0.011650213928694735 -0.0011351914698140481 0.008262131603708055 0.01025646012585418 0.008262131603708055 -0.0009934004464255996" id=303 pbc="T T T"
Si       0.00000000       0.00000000       0.00000000       0.02084677       0.00924056      -0.00300870
Si       3.43223390       1.98160068       1.40120339      -0.02084677      -0.00924056       0.00300870
2
Lattice="5.093914617751953 -0.07349424578136064 -0.04092239717399598 -2.539714319342358 4.502543913284177 0.09103103649871652 -0.03273793663645803 -0.15193210959104855 9.086234801750306" Properties=species:S:1:pos:R:3:dft_force:R:3 dft_energy=-8.423855960854947 volume=206.75087540265392 dft_virial="0.00013206355063468834 -2.0147561409792083e-05 1.0962143664465198e-05 -2.0147561409792097e-05 0.00013420994098088212 -6.089980958137216e-06 1.0962143664465198e-05 -6.089980958137212e-06 6.566822687276502e-05" id=2364 pbc="T T T"
Si       0.09386512      -0.02612609       0.12239253      -0.00122362       0.00017196      -0.00670008
Si       0.28780716       2.88224740       4.35189272       0.00122362      -0.00017196       0.00670011
2
Lattice="7.104990393641846 0.0 0.0 3.8411725942079427 6.323291954107524 0.0 3.703305735059745 2.070846925040527 6.233667913194898" Properties=species:S:1:pos:R:3:dft_force:R:3 dft_energy=-8.458190646906292 volume=280.0595531906717 dft_virial="-0.000217087490498944 0.009197431408614329 0.008923842623848427 0.009197431408614329 -3.513262763072314e-05 0.004918071823056189 0.008923842623848427 0.0049180718230561905 0.0002849700895995692" id=239 pbc="T T T"
Si       0.00000000       0.00000000       0.00000000       0.01220628      -0.00039352      -0.01949466
Si       3.61064490       2.08460468       1.47403804      -0.01220628       0.00039351       0.01949466
4
Lattice="7.387084854484687 0.08780495275053914 0.06452872364199237 -0.26822385219082634 7.323522215529387 0.016084214937139782 -0.12751805748560335 0.1269128537969307 7.619215145565033" Properties=species:S:1:pos:R:3:dft_force:R:3 dft_energy=-16.843420203216265 volume=412.41782698278666 dft_virial="8.479102949174491e-05 -1.8144590370169883e-05 6.16663030091329e-08 -1.8144590370169886e-05 8.41256512909922e-05 1.2268510428111412e-05 6.166630300913312e-08 1.2268510428111409e-05 4.1783217747705524e-05" id=2285 pbc="T T T"
Si       0.09386466      -0.02612626       0.12239720       0.00291810      -0.00236942      -0.00480552
Si       3.95215502       3.62009673      -0.04424951      -0.00335522       0.00270558      -0.00621650
Si       3.96277392       0.14502457       3.57562783      -0.00509743      -0.00247404       0.00583187
Si       0.10253059       3.57677160       3.57633320       0.00553457       0.00213786       0.00519013
2
Lattice="7.002170395200958 0.0 0.0 3.624060070023563 5.6972748218982465 0.0 3.4947933544685372 1.6266441227337443 5.560398179239352" Properties=species:S:1:pos:R:3:dft_force:R:3 dft_energy=-8.434285835176025 volume=221.82257202668728 dft_virial="-0.0007156299675507432 0.01297410873455142 0.012836356937706994 0.012974108734551425 -0.0014359493503055608 0.006183266619440078 0.012836356937707002 0.006183266619440079 -0.0009660035314678127" id=318 pbc="T T T"
Si       0.00000000       0.00000000       0.00000000      -0.02761065       0.02879085      -0.00628492
Si       3.39731986       1.96144391       1.38695236       0.02761065      -0.02879085       0.00628492
4
Lattice="7.6305007411593895 -0.08685408035914995 -0.07918171670412434 0.18069166250911567 7.482205296111616 -0.017077643960855548 0.031461086488570884 -0.26060260562747184 7.488480358475571" Properties=species:S:1:pos:R:3:dft_force:R:3 dft_energy=-16.84217330685672 volume=427.6455852153688 dft_virial="0.000166285568333093 -8.611005133694755e-06 -1.1701330405448017e-05 -8.611005133694759e-06 0.00014372564368974027 -2.422249045118083e-05 -1.170133040544802e-05 -2.422249045118083e-05 0.0001619794538897143" id=2280 pbc="T T T"
Si       0.09386404      -0.02613041       0.12239384       0.00157915      -0.00712042      -0.00235903
Si       3.95215753       3.62009858      -0.04424792      -0.00089473       0.00269520      -0.00289825
Si       3.96277014       0.14502144       3.57562253       0.00007232      -0.00068937       0.00268227
Si       0.10252705       3.57676998       3.57632954      -0.00075674       0.00511456       0.00257504
2
Lattice="5.016791549790735 -0.1654646084448449 0.014183244942072487 -2.4928356754988927 4.593779758300281 0.009118778928075423 0.003769077652827345 -0.14958573114840695 9.134443434840284" Properties=species:S:1:pos:R:3:dft_force:R:3 dft_energy=-8.423208385278906 volume=206.75684868238835 dft_virial="7.152689763302724e-05 1.1001741592522871e-05 1.7965952115741112e-05 1.1001741592522885e-05 0.00015283698409680724 -2.1923702512470885e-05 1.796595211574111e-05 -2.1923702512470875e-05 0.0001002170279133366" id=2372 pbc="T T T"
Si       0.09386714      -0.02612849       0.12239958      -0.00119623      -0.00006935      -0.00662571
Si       0.28780746       2.88224695       4.35189345       0.00119623       0.00006935       0.00662569
2
Lattice="7.029072536311131 0.0 0.0 3.970161520022649 6.160996605346289 0.0 3.7853274077730017 2.433649774529055 5.772024828483944" Properties=species:S:1:pos:R:3:dft_force:R:3 dft_energy=-8.454728155506274 volume=249.96383845031727 dft_virial="-0.00039312027146806575 0.011367919206998967 0.011477183601232333 0.011367919206998964 -0.0002926939283671908 0.007428683024844657 0.011477183601232326 0.007428683024844653 -0.00032636042903433436" id=260 pbc="T T T"
Si       0.00000000       0.00000000       0.00000000       0.00519279      -0.01204555      -0.01376429
Si       3.52022480       2.03240043       1.43712451      -0.00519279       0.01204555       0.01376428
2
Lattice="6.998304015549973 0.0 0.0 4.067503202428246 6.168855976298607 0.0 3.4694937011120475 2.1952457060985173 5.721002223119047" Properties=species:S:1:pos:R:3:dft_force:R:3 dft_energy=-8.453622151137484 volume=246.98441653260144 dft_virial="-0.0004806059199664528 0.011799156844292854 0.010682203540347584 0.011799156844292847 -0.00030275443109069154 0.006759998810357851 0.010682203540347584 0.006759998810357855 -0.0004162919008691671" id=285 pbc="T T T"
Si       0.00000000       0.00000000       0.00000000       0.00550974      -0.01851714      -0.01305924
Si       3.47275824       2.00499511       1.41774444      -0.00550974       0.01851714       0.01305924
2
Lattice="6.981132074255499 0.0 0.0 3.3506715018478284 5.911040641115914 0.0 3.503440741214825 2.1200894083960256 5.874485778961152" Properties=species:S:1:pos:R:3:dft_force:R:3 dft_energy=-8.451961744176478 volume=242.4150933254257 dft_virial="-0.0005345100962913063 0.010282291738504068 0.010864898582542576 0.010282291738504068 -0.0008324871880333466 0.006690301312680701 0.010864898582542573 0.006690301312680698 -0.00022791938296252195" id=278 pbc="T T T"
Si       0.00000000       0.00000000       0.00000000      -0.00057184       0.01966526      -0.01344752
Si       3.49552109       2.01814080       1.42704184       0.00057184      -0.01966527       0.01344752
2
Lattice="7.180265744090189 0.0 0.0 3.337020120323532 6.0573432376844405 0.0 3.0265154413340225 2.173768968692145 5.903366463323809" Properties=species:S:1:pos:R:3:dft_force:R:3 dft_energy=-8.456377426343145 volume=256.75709019772285 dft_virial="-0.0001590601393984185 0.009132155815525041 0.008441797025938984 0.009132155815525038 -0.00043498251988946697 0.006249554804605534 0.008441797025938981 0.006249554804605533 -0.0001240081348060913" id=247 pbc="T T T"
Si       0.00000000       0.00000000       0.00000000       0.00224637       0.01545650      -0.00258756
Si       3.57710274       2.06524058       1.46034528      -0.00224637      -0.01545650       0.00258756
2
Lattice="7.245946955003807 0.0 0.0 4.160972836004486 6.216898483564968 0.0 3.4910460275634048 2.3523273004819094 5.701878194737835" Properties=species:S:1:pos:R:3:dft_force:R:3 dft_energy=-8.455573436461853 volume=256.8543124614261 dft_virial="-0.00010151426534620436 0.011310474074927655 0.010182669801959338 0.01131047407492765 -0.00016364984920348296 0.006973885039871758 0.010182669801959332 0.006973885039871759 -0.0004330197411114556" id=259 pbc="T T T"
Si       0.00000000       0.00000000       0.00000000      -0.00577863      -0.01796999      -0.00043683
Si       3.54723373       2.04799723       1.44815163       0.00577863       0.01796999       0.00043683
2
Lattice="6.815185774621487 0.0 0.0 3.848174029499681 5.904916038746002 0.0 3.9208982496797793 1.2962292892951777 5.442800522503891" Properties=species:S:1:pos:R:3:dft_force:R:3 dft_energy=-8.432088123929724 volume=219.0351645511037 dft_virial="-0.0009480353029550694 0.013710220316486742 0.015130809929468317 0.013710220316486745 -0.0009061945221158301 0.004866490564551554 0.01513080992946832 0.004866490564551553 -0.0011589475591303263" id=317 pbc="T T T"
Si       0.00000000       0.00000000       0.00000000      -0.00167500      -0.00370407       0.00523129
Si       3.41417817       1.97117708       1.39383589       0.00167500       0.00370407      -0.00523130
2
Lattice="5.055476681308526 -0.019350304187375485 0.1825662519274832 -2.5215333398863784 4.424816284141169 -0.07324342243283907 0.08940940581939141 -0.06322010719795028 8.588394013122146" Properties=species:S:1:pos:R:3:dft_force:R:3 dft_energy=-8.425413289546434 volume=191.6331020659112 dft_virial="-2.7551814098493592e-05 -3.892396087575444e-07 4.927973239660582e-05 -3.892396087575451e-07 -2.6009640849698145e-06 -3.300588185172807e-06 4.927973239660582e-05 -3.3005881851728083e-06 -9.203001677757012e-05" id=2360 pbc="T T T"
Si       0.09386478      -0.02612875       0.12239981      -0.00052401      -0.00025444      -0.00324133
Si       0.28780695       2.88224695       4.35189521       0.00052401       0.00025444       0.00324133
2
Lattice="7.096868350758204 0.0 0.0 3.1903603655174506 6.061523311872112 0.0 3.3591185776249057 2.5335425872028976 5.82006922547643" Properties=species:S:1:pos:R:3:dft_force:R:3 dft_energy=-8.454825782820384 volume=250.36676569553688 dft_virial="-0.00031926611563155366 0.009000510257951328 0.009966408926865242 0.009000510257951328 -0.00043960699126487177 0.00772624295230724 0.009966408926865242 0.007726242952307241 -0.00025862067123860445" id=261 pbc="T T T"
Si       0.00000000       0.00000000       0.00000000       0.00544863       0.00246664      -0.00773362
Si       3.52023105       2.03240436       1.43712642      -0.00544863      -0.00246664       0.00773362
4
Lattice="7.511220717946958 -0.1872151482694138 -0.03973088705789694 -0.11105455561798994 7.433619662659776 0.18464359006176181 0.18735680213971576 -0.11143811332950522 7.409061443348283" Properties=species:S:1:pos:R:3:dft_force:R:3 dft_energy=-16.844324583284003 volume=413.7379574720906 dft_virial="7.6333360268542e-05 -1.789839581300817e-05 -6.480248829988036e-06 -1.7898395813008177e-05 7.354551886282643e-05 -1.1102846606014464e-05 -6.480248829988038e-06 -1.1102846606014464e-05 0.0001047709692483028" id=2286 pbc="T T T"
Si       0.09386249      -0.02612822       0.12239499       0.00193046      -0.00491633      -0.00109660
Si       3.95215598       3.62009811      -0.04424361      -0.00094117       0.00434322      -0.00476884
Si       3.96277095       0.14502291       3.57562471      -0.00512022      -0.00276827       0.00373881
Si       0.10252839       3.57677200       3.57632980       0.00413094       0.00334139       0.00212665
2
Lattice="5.068793430130673 0.05605454919228805 0.12925700236274523 -2.5265683450700926 4.2785143111822626 0.022382502035166257 -0.10147043163172542 0.08370951939598892 9.006848446604145" Properties=species:S:1:pos:R:3:dft_force:R:3 dft_energy=-8.424366639397435 volume=196.62542351963427 dft_virial="1.588076994496484e-05 2.4864826271761147e-05 3.139550068429572e-05 2.4864826271761147e-05 -6.581767990514707e-05 1.8683007403497354e-05 3.1395500684295734e-05 1.868300740349736e-05 -2.782182345163282e-05" id=2363 pbc="T T T"
Si       0.09386362      -0.02612871       0.12239633      -0.00066445       0.00123562      -0.00867702
Si       0.28780986       2.88224630       4.35189224       0.00066445      -0.00123562       0.00867699
2
Lattice="6.96628260636819 0.0 0.0 3.353279323899812 5.826758855957604 0.0 3.50651910507184 1.6476616566918323 5.5981813633751205" Properties=species:S:1:pos:R:3:dft_force:R:3 dft_energy=-8.442488464128948 volume=227.2349336662624 dft_virial="-0.0006850210506009211 0.011337864910716007 0.012420352694320996 0.01133786491071601 -0.001079691411151059 0.005896782120505739 0.012420352694320996 0.005896782120505736 -0.0008426259079688126" id=298 pbc="T T T"
Si       0.00000000       0.00000000       0.00000000      -0.01574647       0.01763867      -0.00110813
Si       3.43223263       1.98160172       1.40120240       0.01574647      -0.01763867       0.00110813
2
Lattice="5.023228013662994 -0.022841875558801534 0.09128873845033172 -2.4910819718607176 4.337492436764698 0.08266461423263836 -0.06015873197879529 -0.08594429061371012 8.754986712474347" Properties=species:S:1:pos:R:3:dft_force:R:3 dft_energy=-8.424816389595996 volume=190.33651894744193 dft_virial="-8.870497966001557e-05 1.3123796102127119e-05 6.850060406827601e-06 1.3123796102127119e-05 -9.981660959767309e-05 1.993642156735929e-06 6.850060406827599e-06 1.9936421567359292e-06 -8.813956801269348e-05" id=2340 pbc="T T T"
Si       0.09386298      -0.02612571       0.12239299      -0.00109781       0.00053501      -0.00840444
Si       0.28780960       2.88224727       4.35189330       0.00109781      -0.00053501       0.00840444
2
Lattice="7.100642133829082 0.0 0.0 2.963587561383984 6.15026107123229 0.0 3.767204934237841 2.088056660857494 5.859619303538722" Properties=species:S:1:pos:R:3:dft_force:R:3 dft_energy=-8.45687739418589 volume=255.894279653019 dft_virial="-0.0002703404421518901 0.00795120021122111 0.01091389006288585 0.007951200211221107 -0.00030143139373138523 0.005966537624398871 0.010913890062885847 0.005966537624398871 -0.00016668892726452172" id=256 pbc="T T T"
Si       0.00000000       0.00000000       0.00000000       0.00605510      -0.00024483      -0.00403409
Si       3.54722817       2.04799449       1.44815218      -0.00605510       0.00024483       0.00403409
2
Lattice="7.694811711660042 0.0 0.0 3.574889396260801 6.289524437986586 0.0 3.5061600571081617 2.2459470580222263 5.806032339822709" Properties=species:S:1:pos:R:3:dft_force:R:3 dft_energy=-8.457216221301893 volume=280.99284195464793 dft_virial="0.00028481932084216584 0.008325850902815917 0.008881531344118848 0.008325850902815913 -7.547998839536625e-06 0.005830079776139149 0.008881531344118846 0.005830079776139149 -0.00023588410092507326" id=228 pbc="T T T"
Si       0.00000000       0.00000000       0.00000000      -0.01275378      -0.00549032       0.00984607
Si       3.64867708       2.10656345       1.48956662       0.01275376       0.00549033      -0.00984607
2
Lattice="4.992602488477688 0.03817934632053419 -0.10984656709008415 -2.4458673830480757 4.4708064732471415 0.05100041998019269 0.068331740776018 -0.12499349676667079 8.717359128387681" Properties=species:S:1:pos:R:3:dft_force:R:3 dft_energy=-8.42549290969544 volume=195.42579674417314 dft_virial="-3.728084453979907e-05 -2.9994617690666947e-05 1.6515888470752566e-05 -2.999461769066694e-05 3.38296921670642e-05 1.3458768197647484e-05 1.651588847075257e-05 1.3458768197647486e-05 3.968079332582505e-05" id=2342 pbc="T T T"
Si       0.09386583      -0.02612514       0.12239480      -0.00058341       0.00015339      -0.00316827
Si       0.28780773       2.88224500       4.35189141       0.00058341      -0.00015339       0.00316828
2
Lattice="6.736616631537921 0.0 0.0 3.670583237485725 6.0658054312705145 0.0 3.4366313638048056 1.7931365532177732 5.460116082983837" Properties=species:S:1:pos:R:3:dft_force:R:3 dft_energy=-8.437207053892056 volume=223.11675490539253 dft_virial="-0.0010952304563937212 0.012509720322043182 0.012898755299542505 0.012509720322043186 -0.0006428799470609774 0.006531050141910588 0.012898755299542507 0.006531050141910586 -0.0012729869877721816" id=309 pbc="T T T"
Si       0.00000000       0.00000000       0.00000000       0.00961112      -0.02031984       0.01554093
Si       3.41418008       1.97117959       1.39383113      -0.00961112       0.02031984      -0.01554093
4
Lattice="7.3758600324825 0.17260741414796663 -0.1145488670922967 -0.0280593337998483 7.521984465671997 -0.04028433114801609 0.052551752847681724 -0.12720035672953126 7.199372424785578" Properties=species:S:1:pos:R:3:dft_force:R:3 dft_energy=-16.844670094162353 volume=399.47071372181284 dft_virial="1.2822457661520592e-05 9.430863593675724e-07 -1.8586302638520596e-05 9.430863593675729e-07 -2.2460471469248992e-05 -3.4097408143402785e-05 -1.8586302638520602e-05 -3.4097408143402785e-05 3.952322086129272e-05" id=2281 pbc="T T T"
Si       0.09386245      -0.02612875       0.12239732       0.00516574      -0.00629660      -0.00129007
Si       3.95215256       3.62009478      -0.04424497      -0.00461552       0.00524231      -0.00159162
Si       3.96277280       0.14502047       3.57562461      -0.00477743      -0.00460009       0.00100979
Si       0.10253144       3.57677204       3.57632963       0.00422719       0.00565438       0.00187191
2
Lattice="6.7958406482836935 0.0 0.0 3.21843791627714 6.028247124543578 0.0 3.4501088905256365 2.461511896510537 5.555084269376905" Properties=species:S:1:pos:R:3:dft_force:R:3 dft_energy=-8.442362800694964 volume=227.57517529851765 dft_virial="-0.0009082421011380988 0.010616890876310257 0.012370253172673765 0.010616890876310257 -0.0006748719285987407 0.008836986678606083 0.012370253172673765 0.008836986678606083 -0.0009331316509751143" id=295 pbc="T T T"
Si       0.00000000       0.00000000       0.00000000       0.01310079      -0.00935967       0.00716460
Si       3.45169751       1.99283699       1.40914711      -0.01310079       0.00935967      -0.00716460
2
Lattice="6.903685428489961 0.0 0.0 3.6336882246285316 5.955589044777842 0.0 3.0345184314718128 2.2564293688355255 5.599825425103544" Properties=species:S:1:pos:R:3:dft_force:R:3 dft_energy=-8.4454163594718 volume=230.23969677996232 dft_virial="-0.0007088783065460591 0.011915822062811046 0.010469594534352743 0.011915822062811046 -0.000783318545168821 0.00790916900027564 0.010469594534352743 0.00790916900027564 -0.000800045190062562" id=290 pbc="T T T"
Si       0.00000000       0.00000000       0.00000000       0.00098988       0.00065683       0.00163548
Si       3.45170452       1.99284192       1.40915127      -0.00098988      -0.00065683      -0.00163547
2
Lattice="7.039611538908168 0.0 0.0 3.153040164282216 5.928739815999159 0.0 3.301873104131617 2.0165664318367766 5.718936752464831" Properties=species:S:1:pos:R:3:dft_force:R:3 dft_energy=-8.45084203705039 volume=238.6856885318392 dft_virial="-0.0005255562688879604 0.009668246760438336 0.010607657577067407 0.009668246760438336 -0.0007647755271774203 0.006591611053584539 0.010607657577067407 0.00659161105358454 -0.0004890067537838842" id=300 pbc="T T T"
Si       0.00000000       0.00000000       0.00000000      -0.00578706       0.00578452      -0.01137743
Si       3.43223639       1.98160177       1.40120240       0.00578706      -0.00578452       0.01137743
4
Lattice="7.4363899822612165 -0.1916984668083047 -0.011490649776138213 -0.05794510679640865 7.373280235068944 -0.21485422587640657 -0.14034200352897128 -0.17031230397508615 7.321098622877294" Properties=species:S:1:pos:R:3:dft_force:R:3 dft_energy=-16.84507220953198 volume=401.0489155745682 dft_virial="-1.4904037604543079e-06 -2.3033902629807142e-05 1.1437441592019838e-05 -2.3033902629807142e-05 9.531052990513218e-06 -1.9880401851936045e-05 1.1437441592019837e-05 -1.988040185193604e-05 3.527579002507745e-05" id=2313 pbc="T T T"
Si       0.09386702      -0.02612728       0.12239835       0.00182666      -0.00636082      -0.00354144
Si       3.95215474       3.62009781      -0.04424544      -0.00359517       0.00329028      -0.00195333
Si       3.96277224       0.14502461       3.57562329      -0.00361155      -0.00248974       0.00177683
Si       0.10253006       3.57677173       3.57633655       0.00538006       0.00556028       0.00371795
2
Lattice="6.8397881190379906 0.0 0.0 3.3662352862102463 6.112736779575596 0.0 3.8681862291594684 1.7800596484353628 5.5514635541221224" Properties=species:S:1:pos:R:3:dft_force:R:3 dft_energy=-8.445105569498129 volume=232.1057163594453 dft_virial="-0.0008171012141972453 0.01065882042289275 0.013608534623315077 0.01065882042289275 -0.00047739579679439276 0.006021182511092509 0.01360853462331507 0.006021182511092504 -0.0009220117001970677" id=296 pbc="T T T"
Si       0.00000000       0.00000000       0.00000000       0.00598269      -0.01374706       0.00738018
Si       3.45169925       1.99283616       1.40915020      -0.00598269       0.01374706      -0.00738018
2
Lattice="6.863353003812073 0.0 0.0 3.49624466413225 6.141262195426822 0.0 4.127262011667288 2.3496514482894395 5.4585324924914005" Properties=species:S:1:pos:R:3:dft_force:R:3 dft_energy=-8.440918752979165 volume=230.0752359071907 dft_virial="-0.0007476464512155811 0.011206629279907988 0.014880569028384343 0.011206629279907985 -0.00041297756686504 0.008338675145649857 0.01488056902838434 0.008338675145649857 -0.0010994672896556235" id=297 pbc="T T T"
Si       0.00000000       0.00000000       0.00000000       0.00458307      -0.02171645       0.00919536
Si       3.45169702       1.99283525       1.40914746      -0.00458307       0.02171645      -0.00919537
2
Lattice="5.039405996810438 0.20531989617352595 -0.04382280552185535 -2.3894826609072926 4.408648732281932 -0.20330656306308842 -0.3041513819639952 0.17137143877615513 8.978629260871417" Properties=species:S:1:pos:R:3:dft_force:R:3 dft_energy=-8.424929292398291 volume=204.0303918667666 dft_virial="9.564334409446217e-05 2.1151374288897782e-05 -1.2341206815794043e-05 2.115137428889779e-05 8.30410389564676e-05 1.5483577403273232e-05 -1.2341206815794041e-05 1.5483577403273225e-05 0.00016962096179631362" id=2351 pbc="T T T"
Si       0.09386561      -0.02612943       0.12239482      -0.00048308       0.00110281      -0.00133457
Si       0.28781026       2.88224738       4.35188881       0.00048308      -0.00110281       0.00133457
2
Lattice="7.2835109309091175 0.0 0.0 3.5086828414845366 6.283278893144698 0.0 3.4611543397240743 2.0977490661507 6.128485757098227" Properties=species:S:1:pos:R:3:dft_force:R:3 dft_energy=-8.461051810651739 volume=280.46604765342744 dft_virial="-1.6574200956697793e-05 0.008271917078097133 0.008360660985522192 0.008271917078097133 -5.59875834826553e-05 0.0050975603064883955 0.008360660985522192 0.0050975603064883955 0.00019414501509067944" id=230 pbc="T T T"
Si       0.00000000       0.00000000       0.00000000       0.00550859       0.00760153      -0.00614601
Si       3.64867753       2.10656477       1.48956524      -0.00550859      -0.00760153       0.00614601
2
Lattice="7.186877895800255 0.0 0.0 4.102667226155282 6.289955295543001 0.0 3.7364874360820486 2.2161593051197506 6.215980076668401" Properties=species:S:1:pos:R:3:dft_force:R:3 dft_energy=-8.457371488985299 volume=280.9942538243384 dft_virial="-0.00011147830409572432 0.009845194526979897 0.008945233170709582 0.009845194526979895 -6.075468277249187e-05 0.005313954852754046 0.008945233170709584 0.005313954852754048 0.00028178593378684586" id=233 pbc="T T T"
Si       0.00000000       0.00000000       0.00000000       0.00642499      -0.00416058      -0.02385927
Si       3.61064211       2.08460572       1.47403887      -0.00642498       0.00416059       0.02385927
4
Lattice="7.26075190094362 0.05964461308932959 -0.014087813772778885 -0.005758316755175908 7.445082457872838 -0.23068294984149695 0.13968946220087675 -0.03383618876830678 7.102962018311456" Properties=species:S:1:pos:R:3:dft_force:R:3 dft_energy=-16.843683841996285 volume=383.92257625448417 dft_virial="-7.295757825547779e-05 -3.106809460736351e-05 3.6545956565776306e-05 -3.106809460736352e-05 -0.0001593691318092215 1.2186871500400208e-05 3.6545956565776306e-05 1.2186871500400207e-05 -8.681845000276181e-05" id=2326 pbc="T T T"
Si       0.09386406      -0.02612482       0.12239631       0.00830897      -0.00640799      -0.00199322
Si       3.95215683       3.62009238      -0.04424735      -0.00835307       0.00625483       0.00252661
Si       3.96276882       0.14502586       3.57562442      -0.00854898      -0.00604909      -0.00038551
Si       0.10252732       3.57677090       3.57633402       0.00859307       0.00620225      -0.00014789
2
Lattice="7.207738582489998 0.0 0.0 3.2345629492985717 6.378218733645896 0.0 3.509465188100132 2.0583407175477535 5.75472249608687" Properties=species:S:1:pos:R:3:dft_force:R:3 dft_energy=-8.459144585412895 volume=264.559171319241 dft_virial="-0.0001613768543297362 0.008024207248787175 0.00979509695402928 0.008024207248787175 3.823044158071223e-05 0.005685670923948246 0.009795096954029282 0.005685670923948247 -0.00032885449255562645" id=252 pbc="T T T"
Si       0.00000000       0.00000000       0.00000000       0.00318944      -0.01482164       0.00444742
Si       3.54723153       2.04799307       1.44815290      -0.00318944       0.01482164      -0.00444742
2
Lattice="6.872701478950598 0.0 0.0 2.5101742339457753 5.88353378764586 0.0 2.9900493963071186 1.7221036379192152 5.493411167573619" Properties=species:S:1:pos:R:3:dft_force:R:3 dft_energy=-8.434100457567743 volume=222.1303179794047 dft_virial="-0.0007976288487224381 0.00843161149428746 0.010973862677031609 0.00843161149428746 -0.0008780838586370464 0.006262953467649735 0.010973862677031609 0.006262953467649735 -0.0010318248248652791" id=311 pbc="T T T"
Si       0.00000000       0.00000000       0.00000000       0.00121122      -0.00797334       0.00837140
Si       3.41418253       1.97117736       1.39383223      -0.00121122       0.00797334      -0.00837140
2
Lattice="6.90674489508573 0.0 0.0 3.441537092824334 5.871044587688209 0.0 3.5786556204271798 2.1223910948158196 5.690855422252892" Properties=species:S:1:pos:R:3:dft_force:R:3 dft_energy=-8.445918950351823 volume=230.76309037367741 dft_virial="-0.0007884805745433189 0.011348286084329673 0.012235061215040213 0.011348286084329673 -0.0009657927727250781 0.00735424573527409 0.012235061215040213 0.0073542457352740905 -0.0005906880302700508" id=319 pbc="T T T"
Si       0.00000000       0.00000000       0.00000000      -0.00406945       0.00473359      -0.02030744
Si       3.39732978       1.96144956       1.38695253       0.00406945      -0.00473359       0.02030744
2
Lattice="7.001040338978432 0.0 0.0 3.534107216765252 6.16184698210237 0.0 3.799698774950781 1.9779385401233012 5.682328977978582" Properties=species:S:1:pos:R:3:dft_force:R:3 dft_energy=-8.454982876704848 volume=245.13191770609123 dft_virial="-0.0004930245304860069 0.01028405185503522 0.012056369324205961 0.01028405185503522 -0.00031900702479838676 0.006163750316458265 0.012056369324205961 0.006163750316458265 -0.0005476940662133479" id=274 pbc="T T T"
Si       0.00000000       0.00000000       0.00000000       0.00139848      -0.01079559      -0.00172101
Si       3.49552825       2.01814286       1.42704305      -0.00139848       0.01079559       0.00172101
2
Lattice="6.7309209969983 0.0 0.0 3.4668896585123137 6.0170145924588025 0.0 3.285982397149639 1.8521659281727083 5.67104920274069" Properties=species:S:1:pos:R:3:dft_force:R:3 dft_energy=-8.444781069323348 volume=229.67777546739086 dft_virial="-0.0010560399675093026 0.011406965328633964 0.011380798399228054 0.011406965328633964 -0.0007235696581732578 0.006265571915756088 0.011380798399228054 0.006265571915756086 -0.0006678689486170425" id=307 pbc="T T T"
Si       0.00000000       0.00000000       0.00000000       0.01858431      -0.00274412      -0.00657367
Si       3.43223225       1.98159854       1.40120284      -0.01858431       0.00274412       0.00657367
2
Lattice="7.4370436196304635 0.0 0.0 3.7172311268721123 6.154032964577043 0.0 3.2661553906500655 2.0515301445946026 5.786184546335765" Properties=species:S:1:pos:R:3:dft_force:R:3 dft_energy=-8.458093707776277 volume=264.82100416598576 dft_virial="0.0001127744427359442 0.009685553610306746 0.008944989456920181 0.009685553610306742 -0.00024104326000086402 0.005768698726248108 0.008944989456920177 0.005768698726248109 -0.0003172066465282527" id=224 pbc="T T T"
Si       0.00000000       0.00000000       0.00000000      -0.01332079       0.00910080       0.01522511
Si       3.64867844       2.10656511       1.48956641       0.01332079      -0.00910080      -0.01522511
2
Lattice="5.254675244338335 0.10091685526077755 -0.06874235936563794 -2.674383837476734 4.172357377658726 -0.020585485874214625 0.03794570058248547 -0.22046482274042048 8.374370756514521" Properties=species:S:1:pos:R:3:dft_force:R:3 dft_energy=-8.424694774519866 volume=185.80950033544744 dft_virial="-0.0001315424973054102 1.1028224866732782e-05 -1.1395798654331769e-05 1.1028224866732778e-05 -0.00012543700826578243 -4.126891038584213e-05 -1.1395798654331769e-05 -4.1268910385842143e-05 -0.00020943083716716624" id=2359 pbc="T T T"
Si       0.09386755      -0.02612887       0.12239983      -0.00053240       0.00083012       0.00497764
Si       0.28781009       2.88224430       4.35188794       0.00053240      -0.00083012      -0.00497764
2
Lattice="5.10305236953032 -0.02540872834840321 0.06819254354967806 -2.55422129326684 4.501214150804801 0.012288170892514026 0.1252966655288445 -0.2916212127439616 8.812456099616142" Properties=species:S:1:pos:R:3:dft_force:R:3 dft_energy=-8.42478297047806 volume=201.88017131619543 dft_virial="7.530041895617711e-05 1.1456912278321621e-05 1.1563390375101157e-05 1.1456912278321614e-05 0.0001303411326281198 2.5614067129677173e-06 1.1563390375101154e-05 2.561406712967716e-06 5.75547014968984e-05" id=2339 pbc="T T T"
Si       0.09386436      -0.02612835       0.12239890      -0.00054319      -0.00081989      -0.00525567
Si       0.28780975       2.88224800       4.35188941       0.00054318       0.00081989       0.00525567
2
Lattice="4.95330238338716 0.038338952589020085 0.02217655968210454 -2.5450800454951428 4.255079288387464 0.0295951709131154 -0.04164576543724148 -0.08996143261491708 8.943502426954513" Properties=species:S:1:pos:R:3:dft_force:R:3 dft_energy=-8.424376232026063 volume=189.39428376598164 dft_virial="-0.0001567917219664442 -1.703047112658113e-05 1.9364586335860384e-05 -1.7030471126581132e-05 -0.00018388880588871066 1.2407696398996693e-05 1.9364586335860377e-05 1.2407696398996688e-05 -4.6907313538719114e-05" id=2331 pbc="T T T"
Si       0.09386221      -0.02612580       0.12239896      -0.00190648       0.00001043      -0.00785436
Si       0.28780733       2.88224560       4.35189404       0.00190648      -0.00001043       0.00785438
2
Lattice="7.14579902930314 0.0 0.0 3.711030935457215 5.9885855526399325 0.0 3.5969443898613083 1.663285912290238 5.8566203081789405" Properties=species:S:1:pos:R:3:dft_force:R:3 dft_energy=-8.455472086045916 volume=250.623693012196 dft_virial="-0.00030580670238775814 0.010721854237962798 0.01060771441151835 0.010721854237962798 -0.0005632383283428051 0.004901698733150075 0.01060771441151835 0.004901698733150076 -0.0001926522284894555" id=277 pbc="T T T"
Si       0.00000000       0.00000000       0.00000000      -0.01112026       0.01190942      -0.01660069
Si       3.49552504       2.01814507       1.42704167       0.01112026      -0.01190942       0.01660069
2
Lattice="5.111367939266385 0.10807916293750541 0.03883445767615821 -2.555265537026047 4.274532639340415 -0.14543281232514563 -0.13887389420001076 -0.0809030871283072 8.7871319932036" Properties=species:S:1:pos:R:3:dft_force:R:3 dft_energy=-8.425705408522582 volume=194.38736515894334 dft_virial="5.779702687424913e-06 5.129404811913386e-05 -6.593950988176246e-07 5.1294048119133834e-05 -4.583628833143982e-05 -1.841796895954959e-05 -6.593950988176255e-07 -1.8417968959549597e-05 2.6018735019093865e-05" id=2375 pbc="T T T"
Si       0.09386627      -0.02612834       0.12239949      -0.00148696       0.00063851      -0.00186277
Si       0.28780661       2.88224698       4.35188744       0.00148696      -0.00063851       0.00186277
2
Lattice="6.962454021239698 0.0 0.0 3.1123335738316524 5.989464275287883 0.0 3.228619760636624 1.902901295166661 5.886209639838331" Properties=species:S:1:pos:R:3:dft_force:R:3 dft_energy=-8.452640171927614 volume=245.46300390203027 dft_virial="-0.0005103558212024652 0.009199073029101999 0.009746141360430909 0.009199073029102002 -0.0006358072412628 0.0057485247515993805 0.009746141360430909 0.005748524751599378 -0.00018307067318750796" id=265 pbc="T T T"
Si       0.00000000       0.00000000       0.00000000       0.00967685       0.01656806      -0.00769579
Si       3.52023338       2.03240532       1.43712986      -0.00967685      -0.01656806       0.00769579
2
Lattice="7.03735709564149 0.0 0.0 3.715832729539889 6.029532138308324 0.0 3.854028401033772 1.695755186563558 5.864878411343555" Properties=species:S:1:pos:R:3:dft_force:R:3 dft_energy=-8.454854541077701 volume=248.85834936033345 dft_virial="-0.0004091254304937031 0.010853094255915772 0.011614028882477999 0.010853094255915772 -0.0005253346743115928 0.0050129666958483605 0.011614028882477995 0.005012966695848358 -0.0001976322305596894" id=263 pbc="T T T"
Si       0.00000000       0.00000000       0.00000000      -0.00367117       0.01041223      -0.01458150
Si       3.52022992       2.03240719       1.43712980       0.00367116      -0.01041223       0.01458150
4
Lattice="7.263043401739602 -0.1845944760797828 0.16953609896939612 -0.1053549715507674 7.441140829327571 -0.03886321930777501 -0.040861831451701726 0.03776330421693659 7.02507506635888" Properties=species:S:1:pos:R:3:dft_force:R:3 dft_energy=-16.842960119576027 volume=379.59710907640357 dft_virial="-0.00017814770878094125 -1.9564337198605512e-05 5.113310860332015e-05 -1.956433719860552e-05 -0.00018852802671129838 -4.387788166242296e-05 5.113310860332015e-05 -4.387788166242295e-05 -0.0001247931495758176" id=2306 pbc="T T T"
Si       0.09386292      -0.02612630       0.12239913       0.00963954      -0.00531868      -0.00026604
Si       3.95215710       3.62009348      -0.04424924      -0.01016823       0.00516018       0.00205763
Si       3.96276986       0.14502357       3.57562244      -0.01287205      -0.00762648       0.00059908
Si       0.10253081       3.57677243       3.57633634       0.01340072       0.00778498      -0.00239068
2
Lattice="6.705404025137478 0.0 0.0 3.306274276275871 5.85912041584182 0.0 4.242119565522041 2.0690327879608867 5.517520293471594" Properties=species:S:1:pos:R:3:dft_force:R:3 dft_energy=-8.430389235248299 volume=216.77106616441938 dft_virial="-0.0011489207157963537 0.012048079187648717 0.016508811139898102 0.012048079187648717 -0.0011336260697095324 0.007882632611921011 0.016508811139898102 0.007882632611921014 -0.0010221879300362324" id=324 pbc="T T T"
Si       0.00000000       0.00000000       0.00000000       0.00934316       0.00239376      -0.00683824
Si       3.39732848       1.96144847       1.38695563      -0.00934316      -0.00239376       0.00683824
2
Lattice="6.853721069754855 0.0 0.0 3.64457871628475 6.0257942600338135 0.0 3.679138027651906 2.6421640448463872 5.615999591004217" Properties=species:S:1:pos:R:3:dft_force:R:3 dft_energy=-8.444704844418384 volume=231.93580217735794 dft_virial="-0.0007798902884515851 0.011782912412094632 0.012705513174362134 0.011782912412094636 -0.0006170200663082699 0.009233877486811296 0.012705513174362132 0.00923387748681129 -0.0007098398601444522" id=291 pbc="T T T"
Si       0.00000000       0.00000000       0.00000000       0.00874406      -0.00774778      -0.00893980
Si       3.45169647       1.99283860       1.40914976      -0.00874406       0.00774778       0.00893980
4
Lattice="7.307942462981216 -0.11266898644078022 -0.07791665844725486 0.14750930008266816 7.302671468799059 0.0016851632716350304 0.017769264825207333 0.034174714306272246 7.539381832395878" Properties=species:S:1:pos:R:3:dft_force:R:3 dft_energy=-16.84401192116987 volume=402.4925780804741 dft_virial="-1.4015544122610861e-06 -2.1634256233502284e-05 -3.2739173059512363e-06 -2.163425623350229e-05 1.3174971450362425e-05 -2.6902784624431193e-06 -3.2739173059512363e-06 -2.6902784624431184e-06 1.4385346419004177e-05" id=2287 pbc="T T T"
Si       0.09386351      -0.02612917       0.12239567       0.00610350      -0.00390264      -0.00416761
Si       3.95215084       3.62009372      -0.04424297      -0.00608053       0.00334180      -0.00583843
Si       3.96277263       0.14501972       3.57562170      -0.00626938      -0.00319678       0.00504048
Si       0.10252787       3.57677315       3.57633317       0.00624642       0.00375762       0.00496557
2
Lattice="5.113416270104651 -0.11973225357131645 -0.03954584507577358 -2.413714014291009 4.3779449913323285 0.026670498481815838 -0.10414063354308288 -0.06573230910802778 8.66488971090725" Properties=species:S:1:pos:R:3:dft_force:R:3 dft_energy=-8.425566837689841 volume=191.45527664287965 dft_virial="-3.6542467709626965e-05 1.5313884441441492e-05 -6.144309725009375e-06 1.53138844414415e-05 -5.813306508257533e-05 4.852138906978512e-06 -6.144309725009375e-06 4.852138906978509e-06 -3.1779269279420866e-05" id=2370 pbc="T T T"
Si       0.09386402      -0.02612665       0.12239151      -0.00103660       0.00014380      -0.00289422
Si       0.28780952       2.88224780       4.35189124       0.00103660      -0.00014380       0.00289422
2
Lattice="7.071328702183886 0.0 0.0 3.424060905623795 6.301800098892155 0.0 3.5740635859443395 2.1615216536784456 5.748705608106062" Properties=species:S:1:pos:R:3:dft_force:R:3 dft_energy=-8.458499575935534 volume=256.1743936887414 dft_virial="-0.0002961538271489805 0.009183415101720799 0.01053724374574586 0.009183415101720795 -9.568406401450285e-05 0.006308937158884709 0.01053724374574586 0.006308937158884712 -0.0004152723690647594" id=234 pbc="T T T"
Si       0.00000000       0.00000000       0.00000000       0.00820807      -0.00713495       0.01584666
Si       3.61064634       2.08460704       1.47403710      -0.00820807       0.00713495      -0.01584666
4
Lattice="7.466819637333706 -0.34404648622212214 -0.08204334787190638 -0.2567954877877558 7.095149663745119 -0.06310379455497955 0.29141459008949505 0.13015439550480754 7.542053659471703" Properties=species:S:1:pos:R:3:dft_force:R:3 dft_energy=-16.843783075983996 volume=399.1381422703754 dft_virial="-5.113136014997705e-05 -0.00010844703019742571 -1.844197930095156e-05 -0.00010844703019742566 -5.927824073824368e-06 -8.512544919333872e-07 -1.844197930095156e-05 -8.512544919333874e-07 2.392530376038192e-06" id=2319 pbc="T T T"
Si       0.09386158      -0.02612747       0.12239235       0.01130668       0.00488426      -0.00491361
Si       3.95215166       3.62009399      -0.04424932      -0.00851656      -0.00279054      -0.00659574
Si       3.96277246       0.14502180       3.57562223      -0.00891520      -0.00045667       0.00551634
Si       0.10252654       3.57676924       3.57633524       0.00612509      -0.00163704       0.00599296
4
Lattice="7.24105443516989 0.1041700187843208 0.16046444981086885 0.1042187170265524 7.2244952375713245 -0.23427620737568913 0.2182792410937233 -0.2712831865057667 7.415602503561541" Properties=species:S:1:pos:R:3:dft_force:R:3 dft_energy=-16.843909298254 volume=387.12851823649 dft_virial="-6.737936790955168e-05 -1.130778368108799e-05 3.0491273645156393e-05 -1.1307783681087996e-05 -4.384398142146011e-05 -1.7780159999426766e-05 3.04912736451564e-05 -1.7780159999426762e-05 -0.0001864208593324444" id=2288 pbc="T T T"
Si       0.09386141      -0.02612556       0.12239282       0.01163476      -0.00430164      -0.00678940
Si       3.95215695       3.62009395      -0.04424531      -0.00760284       0.00077483      -0.00202685
Si       3.96277243       0.14502380       3.57562633      -0.01112576      -0.00052348       0.00558591
Si       0.10253104       3.57676684       3.57633502       0.00709385       0.00405029       0.00323034
2
Lattice="5.074595720812769 0.01670935523642723 0.047026118070230986 -2.529468092013808 4.505680688575705 0.07338677705665318 -0.2944636442943175 0.012997233928996106 8.682115679471627" Properties=species:S:1:pos:R:3:dft_force:R:3 dft_energy=-8.425385549692372 volume=198.9349042385384 dft_virial="6.70345185913629e-05 -6.8005845639668404e-06 1.4884701340570414e-06 -6.800584563966845e-06 5.892481518262763e-05 2.0445239507979498e-05 1.4884701340570437e-06 2.0445239507979498e-05 3.562647317253019e-05" id=2366 pbc="T T T"
Si       0.09386529      -0.02612722       0.12239879      -0.00117097       0.00100257      -0.00473255
Si       0.28780818       2.88224681       4.35189296       0.00117097      -0.00100257       0.00473255
2
Lattice="6.878803404607013 0.0 0.0 3.915540876116465 5.860645424824393 0.0 3.9443157358161414 2.2089821252984216 5.55564173858367" Properties=species:S:1:pos:R:3:dft_force:R:3 dft_energy=-8.437991378871077 volume=223.97140607708917 dft_virial="-0.0008078255115699063 0.013631425370031588 0.014453010584331004 0.013631425370031595 -0.0009632721856117838 0.008152474147473733 0.014453010584331011 0.008152474147473731 -0.0008998336483247227" id=325 pbc="T T T"
Si       0.00000000       0.00000000       0.00000000      -0.00362438      -0.00415678      -0.01519506
Si       3.39732640       1.96144548       1.38695485       0.00362438       0.00415678       0.01519506
2
Lattice="5.318382409547646 -0.029316341823426868 -0.21013803638717804 -2.7027292569145893 4.385975382498926 0.12365900997198256 0.13335358845023146 0.0335775608508905 8.634934244811213" Properties=species:S:1:pos:R:3:dft_force:R:3 dft_energy=-8.42501493551634 volume=200.8562468073193 dft_virial="6.623973498720097e-05 -3.827163730642316e-05 -1.4161594793091755e-05 -3.8271637306423136e-05 0.0001298672130914552 6.147423896780824e-07 -1.416159479309175e-05 6.14742389678081e-07 6.641931417313616e-05" id=2355 pbc="T T T"
Si       0.09386500      -0.02612902       0.12239790      -0.00043711       0.00076706      -0.00271410
Si       0.28781015       2.88224538       4.35189130       0.00043711      -0.00076706       0.00271410
2
Lattice="5.004070178081412 -0.23283359045214982 -0.029518863772203013 -2.4906168535696636 4.52886014480941 0.1195144437381921 0.1266649595239023 -0.017001828148735562 8.846738150366294" Properties=species:S:1:pos:R:3:dft_force:R:3 dft_energy=-8.424723071182648 volume=195.38338329063822 dft_virial="-3.507228655951818e-05 -3.1252822408747655e-05 2.248226174752671e-06 -3.125282240874764e-05 -3.4947303507292604e-05 1.7319370640965806e-05 2.2482261747526673e-06 1.7319370640965806e-05 1.1192098607324014e-05" id=2332 pbc="T T T"
Si       0.09386667      -0.02612845       0.12239973      -0.00015572       0.00061724      -0.00740293
Si       0.28780582       2.88224812       4.35188869       0.00015572      -0.00061725       0.00740293
2
Lattice="6.965233808369023 0.0 0.0 3.4011819914329506 6.22481643602715 0.0 3.720984122955619 1.8227088773420417 5.6388199236851975" Properties=species:S:1:pos:R:3:dft_force:R:3 dft_energy=-8.453215831419861 volume=244.48401774081077 dft_virial="-0.0005085894899144144 0.009857064706123254 0.011981645227757132 0.009857064706123256 -0.00023711602231495855 0.005680937245169101 0.011981645227757135 0.0056809372451691 -0.0006899634470595676" id=257 pbc="T T T"
Si       0.00000000       0.00000000       0.00000000       0.00391342      -0.00801138       0.01766319
Si       3.54722672       2.04799398       1.44815046      -0.00391342       0.00801138      -0.01766319
4
Lattice="7.4209376161511065 0.15752069114571057 0.13501452543294878 0.19004372812727616 7.4910392177236655 0.22297401998595984 -0.24265593331368465 -0.00717462869106043 7.457474639291251" Properties=species:S:1:pos:R:3:dft_force:R:3 dft_energy=-16.843867669340625 volume=414.59034398754045 dft_virial="8.328312607561658e-05 1.772424224682553e-05 2.6383288145027977e-05 1.772424224682553e-05 5.6767558365668474e-05 2.237025223136443e-06 2.6383288145027977e-05 2.237025223136443e-06 0.00010851744861565788" id=2312 pbc="T T T"
Si       0.09386353      -0.02612431       0.12239372       0.00465431      -0.00476063      -0.00170842
Si       3.95215094       3.62009257      -0.04424442      -0.00568701       0.00510989      -0.00681634
Si       3.96277088       0.14502371       3.57562671      -0.00153292      -0.00314876       0.00540853
Si       0.10252537       3.57676686       3.57633549       0.00256561       0.00279947       0.00311622
2
Lattice="4.976672456295057 -0.15624998260772846 -0.10842335765384475 -2.433950127599303 4.5156686470348015 0.19123208240074707 0.1922030614781023 0.050046410643436616 8.704750195382772" Properties=species:S:1:pos:R:3:dft_force:R:3 dft_energy=-8.424954368512788 volume=192.36536522387777 dft_virial="-0.00011207566048891272 2.6416237359408478e-05 1.080061368417422e-05 2.641623735940848e-05 -6.605820767555743e-06 2.76547135798499e-05 1.0800613684174222e-05 2.76547135798499e-05 -2.738324079705035e-05" id=2354 pbc="T T T"
Si       0.09386317      -0.02612609       0.12239932       0.00047973       0.00129707      -0.00664804
Si       0.28780981       2.88224593       4.35189487      -0.00047973      -0.00129707       0.00664804
2
Lattice="5.148870725839781 0.004447375948000519 0.03330304033676612 -2.583796168521377 4.391393813113327 -0.042065794862962046 -0.1215910448792821 0.4444249207154713 8.769273967942318" Properties=species:S:1:pos:R:3:dft_force:R:3 dft_energy=-8.425702927921005 volume=198.45618031774572 dft_virial="8.577992716970849e-05 8.664899290012058e-06 -2.8603154576825095e-05 8.664899290012056e-06 4.760800475757978e-05 1.554862832092586e-05 -2.8603154576825095e-05 1.554862832092586e-05 1.7862578452062843e-05" id=2348 pbc="T T T"
Si       0.09386364      -0.02612730       0.12239958       0.00041863       0.00253609      -0.00309615
Si       0.28780835       2.88224475       4.35189291      -0.00041863      -0.00253609       0.00309615
4
Lattice="7.413475049890437 0.014438698119599398 0.4488287573735604 0.13061121789817454 7.41225234039602 0.004867065223018656 -0.17084420518738458 -0.08045956840685753 7.145171092209187" Properties=species:S:1:pos:R:3:dft_force:R:3 dft_energy=-16.8452229337059 volume=393.18413518882585 dft_virial="-0.00011021845154773557 -2.3731462261409063e-05 4.427794406613702e-05 -2.373146226140907e-05 -3.166276431133918e-05 -3.4657084614384296e-06 4.427794406613702e-05 -3.4657084614384287e-06 9.103990646431373e-06" id=2297 pbc="T T T"
Si       0.09386744      -0.02612463       0.12239250       0.00827163      -0.00577762      -0.00290974
Si       3.95215600       3.62009830      -0.04424255      -0.00612664       0.00531283      -0.00182357
Si       3.96276872       0.14502057       3.57562263      -0.00781525      -0.00447590       0.00236490
Si       0.10252622       3.57677092       3.57633426       0.00567024       0.00494065       0.00236840
4
Lattice="7.532265293885889 -0.060031761280481676 0.06321914343762672 -0.15285074325475162 7.372218095603337 -0.1980738925267384 0.07901676251070576 0.1796031802613312 7.273068285447175" Properties=species:S:1:pos:R:3:dft_force:R:3 dft_energy=-16.845540367994918 volume=404.03346175843603 dft_virial="8.757468759578211e-06 1.2749020830955194e-05 2.306288320355254e-05 1.2749020830955194e-05 4.994381619777435e-05 -1.2922230335144393e-05 2.3062883203552533e-05 -1.292223033514439e-05 0.00010671256597173178" id=2282 pbc="T T T"
Si       0.09386285      -0.02612395       0.12239807       0.00198106      -0.00422002      -0.00183588
Si       3.95215128       3.62009813      -0.04424894      -0.00099433       0.00464309      -0.00297885
Si       3.96276948       0.14502083       3.57562792      -0.00368418      -0.00309265       0.00174237
Si       0.10252836       3.57676841       3.57633095       0.00269745       0.00266958       0.00307237
4
Lattice="7.412827043905041 0.032921674707555394 0.20584901948842116 0.20807014688352257 7.3499386970255305 -0.03451904130344031 -0.14650506182551953 0.2754115199921467 7.383283462515128" Properties=species:S:1:pos:R:3:dft_force:R:3 dft_energy=-16.844993850134728 volume=402.523038488258 dft_virial="2.2360673621736543e-05 1.7312438884018523e-06 6.180487503009735e-05 1.7312438884018523e-06 6.350813684144172e-06 5.50146398973377e-06 6.180487503009735e-05 5.501463989733768e-06 3.4616028961403454e-05" id=2293 pbc="T T T"
Si       0.09386517      -0.02612597       0.12239263       0.00402489      -0.00361914      -0.00248885
Si       3.95215487       3.62009452      -0.04424624      -0.00451251       0.00580546      -0.00502984
Si       3.96276731       0.14502643       3.57562393      -0.00243687      -0.00326523       0.00333206
Si       0.10252607       3.57677291       3.57633147       0.00292450       0.00107890       0.00418662
2
Lattice="7.055184771901209 0.0 0.0 3.2155220688668424 5.884306685630833 0.0 3.1231125716465176 1.7523827196140938 5.798522568203445" Properties=species:S:1:pos:R:3:dft_force:R:3 dft_energy=-8.449691459337153 volume=240.7249159552935 dft_virial="-0.000498533985997736 0.009824082396131261 0.009690523048934885 0.009824082396131258 -0.000842176703125219 0.005541368941667298 0.009690523048934882 0.005541368941667296 -0.0003252712118474315" id=299 pbc="T T T"
Si       0.00000000       0.00000000       0.00000000      -0.00840658       0.01667606      -0.01752829
Si       3.43223065       1.98160066       1.40120138       0.00840658      -0.01667606       0.01752829
2
Lattice="6.894199003344339 0.0 0.0 3.022550795924557 6.1134586549552035 0.0 3.336094154522465 2.3235751174957286 5.5935836597139055" Properties=species:S:1:pos:R:3:dft_force:R:3 dft_energy=-8.447942230623518 volume=235.75501110527682 dft_virial="-0.0006769942223350801 0.009239050165132335 0.011247031353900176 0.009239050165132332 -0.0004564739411835424 0.00782469079693791 0.011247031353900172 0.00782469079693791 -0.0007708665126799597" id=283 pbc="T T T"
Si       0.00000000       0.00000000       0.00000000       0.01205121      -0.01311379       0.00971985
Si       3.47275985       2.00499757       1.41774412      -0.01205121       0.01311379      -0.00971986
2
Lattice="6.8114044326461105 0.0 0.0 3.655489994928339 5.867450328599171 0.0 4.120077272941461 1.8291301667135202 5.822138475582894" Properties=species:S:1:pos:R:3:dft_force:R:3 dft_energy=-8.441935873053842 volume=232.68512457847683 dft_virial="-0.0008133851256141806 0.012154017797336665 0.013890177873821285 0.01215401779733666 -0.0010125010011812403 0.0060340688892679215 0.013890177873821278 0.006034068889267922 -0.00035316099945794277" id=287 pbc="T T T"
Si       0.00000000       0.00000000       0.00000000       0.00470657       0.02103636      -0.02044428
Si       3.47276168       2.00499738       1.41774894      -0.00470657      -0.02103636       0.02044429
4
Lattice="7.074711822173021 -0.13957674003754283 -0.035435860830063746 -0.11219009204627756 7.69731877351506 0.02833338188244153 -0.04032291935548095 0.07872948634524014 7.165553527011311" Properties=species:S:1:pos:R:3:dft_force:R:3 dft_energy=-16.84021726585135 volume=390.07110567484364 dft_virial="-0.00015934858359922704 -4.4178726634292364e-05 1.4491967350235453e-05 -4.4178726634292385e-05 -0.00011234873000702358 -3.975365444957434e-05 1.4491967350235453e-05 -3.975365444957432e-05 -5.996451666054656e-05" id=2327 pbc="T T T"
Si       0.09386706      -0.02612386       0.12239484       0.01248088      -0.00785021      -0.00068812
Si       3.95215566       3.62009238      -0.04424510      -0.01241758       0.00754101      -0.00326207
Si       3.96277360       0.14502289       3.57562238      -0.01811517      -0.01275929       0.00252060
Si       0.10253240       3.57676722       3.57632965       0.01805188       0.01306849       0.00142957
2
Lattice="6.797531953165233 0.0 0.0 3.7991450851962654 5.904827221618143 0.0 3.5377260422939103 1.9482603913360534 5.540316059712954" Properties=species:S:1:pos:R:3:dft_force:R:3 dft_energy=-8.438993125561787 volume=222.3786005957716 dft_virial="-0.0009810069213170385 0.013322580177942382 0.013129414678956052 0.013322580177942382 -0.0009663730035328461 0.007192075551323049 0.013129414678956052 0.00719207555132305 -0.0010329171008070836" id=315 pbc="T T T"
Si       0.00000000       0.00000000       0.00000000       0.00036488      -0.00398212       0.00189775
Si       3.41418499       1.97118031       1.39383272      -0.00036488       0.00398212      -0.00189775
2
Lattice="5.0736664290937235 -0.01890338395890149 -0.015789738915139347 -2.5719567886862005 4.272251399757289 0.14538322591163544 -0.10713666203284831 0.4337353825353457 8.593063224019916" Properties=species:S:1:pos:R:3:dft_force:R:3 dft_energy=-8.424537940559233 volume=185.5360172454748 dft_virial="-0.00018828383060290693 -3.281031354490589e-05 -3.425988094495203e-05 -3.281031354490589e-05 -0.000161281097210792 4.460279011933168e-05 -3.4259880944952035e-05 4.4602790119331694e-05 -0.00016249441223254715" id=2329 pbc="T T T"
Si       0.09386519      -0.02612745       0.12239416       0.00079715       0.00263079      -0.00599584
Si       0.28781083       2.88224551       4.35189156      -0.00079715      -0.00263079       0.00599584
2
Lattice="6.919364486145982 0.0 0.0 3.4817221188645013 5.973350580623199 0.0 3.632115972492843 1.8757648280170351 6.010251262658766" Properties=species:S:1:pos:R:3:dft_force:R:3 dft_energy=-8.452399293033741 volume=248.4144422593051 dft_virial="-0.0005628070416206654 0.01035627666841789 0.010748875989456404 0.01035627666841789 -0.0007089016677078041 0.005500899371684321 0.010748875989456404 0.005500899371684321 -2.784958740465446e-05" id=253 pbc="T T T"
Si       0.00000000       0.00000000       0.00000000       0.00707388       0.02463782      -0.01330461
Si       3.54723010       2.04799738       1.44815201      -0.00707388      -0.02463782       0.01330461
2
Lattice="6.666891406717604 0.0 0.0 3.222608541834189 5.9563335968709445 0.0 2.9777302717006835 2.4247321569469458 5.685628439792178" Properties=species:S:1:pos:R:3:dft_force:R:3 dft_energy=-8.438271755724779 volume=225.77760890252043 dft_virial="-0.0012082214149895809 0.010870526346831513 0.01048433420174664 0.01087052634683151 -0.0008550241634653213 0.008556931171414617 0.010484334201746636 0.008556931171414617 -0.0006103305947983398" id=321 pbc="T T T"
Si       0.00000000       0.00000000       0.00000000       0.02895834      -0.00111416      -0.02024829
Si       3.39732587       1.96144590       1.38695221      -0.02895834       0.00111416       0.02024829
2
Lattice="7.099393024860705 0.0 0.0 3.9717734564069542 6.2120418874246806 0.0 3.8713080567173503 2.0730408970712175 5.895182059478054" Properties=species:S:1:pos:R:3:dft_force:R:3 dft_energy=-8.459043501607889 volume=259.98770889292155 dft_virial="-0.0002426206023272286 0.010731741283809425 0.01094728066204346 0.010731741283809422 -0.00021195697151014497 0.005801191837151006 0.010947280662043458 0.005801191837151006 -0.00013405200384392156" id=232 pbc="T T T"
Si       0.00000000       0.00000000       0.00000000       0.00179290      -0.00083058      -0.00512226
Si       3.61064568       2.08460598       1.47403721      -0.00179290       0.00083058       0.00512226
4
Lattice="7.498355953819297 0.0023301834897535446 0.1468551146928452 0.13437107368751372 7.3288030740819154 0.04006763625330525 -0.1245828025880059 0.17646449634641778 7.444496718363249" Properties=species:S:1:pos:R:3:dft_force:R:3 dft_energy=-16.8447252263468 volume=409.18688771600654 dft_virial="6.513048910801008e-05 7.197421927987898e-06 2.429882067708426e-05 7.1974219279879e-06 6.43277658015618e-05 1.2693077622698193e-05 2.4298820677084257e-05 1.2693077622698188e-05 7.292619662412092e-05" id=2318 pbc="T T T"
Si       0.09386253      -0.02612446       0.12239749       0.00200514      -0.00336521      -0.00221832
Si       3.95215517       3.62009535      -0.04424601      -0.00254220       0.00451828      -0.00581872
Si       3.96277061       0.14502669       3.57562138      -0.00128206      -0.00207152       0.00374262
Si       0.10253119       3.57676633       3.57633345       0.00181911       0.00091844       0.00429443
4
Lattice="7.079294048977275 -0.22458597526752686 0.22621588294727782 0.04413903229155022 7.581021059380728 0.03364608232016943 -0.029587706494923132 -0.01596797788321405 7.543321911365723" Properties=species:S:1:pos:R:3:dft_force:R:3 dft_energy=-16.83821770713906 volume=404.96647780849344 dft_virial="-7.418541401636837e-05 -7.849911550625243e-05 7.790755846145376e-05 -7.849911550625243e-05 -3.395809394273793e-05 -5.653900647747043e-05 7.790755846145376e-05 -5.653900647747043e-05 -8.343050717035575e-06" id=2317 pbc="T T T"
Si       0.09386425      -0.02612932       0.12239577       0.01395396      -0.00698802      -0.01043614
Si       3.95215619       3.62009474      -0.04424546      -0.00944112       0.00484408      -0.00587239
Si       3.96276874       0.14502166       3.57562565      -0.01981672      -0.01064041       0.01142571
Si       0.10253206       3.57676845       3.57633130       0.01530395       0.01278431       0.00488285
4
Lattice="7.210215087473582 -0.24236877053178651 0.09101614545685446 0.090360845128618 7.40026718708759 0.05829618011584163 -0.21274098294576008 -0.07309451201421856 7.275156697376544" Properties=species:S:1:pos:R:3:dft_force:R:3 dft_energy=-16.842943796418897 volume=388.52005471326146 dft_virial="-0.00011559313443879704 -6.18527415952076e-05 1.1233991074890159e-05 -6.18527415952076e-05 -0.00013177466732929865 -1.43311702784354e-05 1.1233991074890155e-05 -1.4331170278435394e-05 -6.55415394671527e-05" id=2314 pbc="T T T"
Si       0.09386466      -0.02612601       0.12239771       0.00903322      -0.00533325      -0.00308168
Si       3.95215506       3.62009461      -0.04424522      -0.00934033       0.00322864      -0.00379700
Si       3.96277273       0.14502257       3.57562331      -0.01160121      -0.00649731       0.00414349
Si       0.10253165       3.57677060       3.57633303       0.01190830       0.00860190       0.00273520
2
Lattice="7.004568457653108 0.0 0.0 3.659001106067894 5.970344026358919 0.0 3.4595064985434005 2.06888727904929 5.651116371578137" Properties=species:S:1:pos:R:3:dft_force:R:3 dft_energy=-8.450849956012638 volume=236.32789778930658 dft_virial="-0.0005220055375251707 0.011585320530419833 0.011513908691098538 0.011585320530419833 -0.0007153271437548197 0.00697107898377349 0.011513908691098534 0.006971078983773485 -0.0006934967624876276" id=273 pbc="T T T"
Si       0.00000000       0.00000000       0.00000000      -0.00758386       0.00485949       0.00553015
Si       3.49552022       2.01814025       1.42704252       0.00758386      -0.00485949      -0.00553015
4
Lattice="7.413541946195249 -0.08671998539334651 0.0683951410874992 -0.28953701490385064 7.435276102094317 0.05098709741101407 0.004613180518175184 -0.08532576435585885 7.14657100132231" Properties=species:S:1:pos:R:3:dft_force:R:3 dft_energy=-16.845663397847748 volume=393.7835015189699 dft_virial="-4.777819457606286e-05 -1.6372949824205885e-05 1.8208671143292162e-05 -1.6372949824205878e-05 -5.2167540909247376e-05 -3.9303203170600765e-05 1.8208671143292155e-05 -3.9303203170600765e-05 1.5376370048372095e-05" id=2321 pbc="T T T"
Si       0.09386640      -0.02612405       0.12239401       0.00334428      -0.00534905      -0.00026624
Si       3.95215610       3.62009197      -0.04424629      -0.00453676       0.00448440      -0.00147525
Si       3.96277173       0.14502197       3.57562733      -0.00642541      -0.00470997       0.00106011
Si       0.10252919       3.57676977       3.57633651       0.00761787       0.00557459       0.00068139
2
Lattice="5.076803714611304 0.2577896538046601 -0.05912501399410249 -2.400263283886625 4.202716678227596 0.02852411194020001 -0.048510176687683336 -0.10284758844230768 8.827176291339265" Properties=species:S:1:pos:R:3:dft_force:R:3 dft_energy=-8.424560169767435 volume=193.7896960784047 dft_virial="-1.6406531246132593e-05 6.325075874602878e-05 -7.601495071530565e-06 6.32507587460288e-05 -0.00010127416618420716 -1.0492626325231164e-05 -7.601495071530563e-06 -1.0492626325231163e-05 2.2924537594835394e-05" id=2337 pbc="T T T"
Si       0.09386638      -0.02612756       0.12239605      -0.00102774      -0.00061690      -0.00560945
Si       0.28780659       2.88224812       4.35188877       0.00102774       0.00061690       0.00560945
2
Lattice="4.972586169214949 -0.0017757378447883438 0.030680572907316708 -2.434780208696806 4.420841490902414 -0.10832138803215993 -0.17377862860548718 -0.37025543799525934 9.059066303742869" Properties=species:S:1:pos:R:3:dft_force:R:3 dft_energy=-8.425020439333219 volume=198.9581872485642 dft_virial="-3.143072587165366e-05 4.1046594347634354e-05 1.0155566070649726e-05 4.1046594347634354e-05 5.664835700820113e-05 -2.1320843148233007e-05 1.0155566070649727e-05 -2.1320843148233007e-05 6.505944928180732e-05" id=2333 pbc="T T T"
Si       0.09386162      -0.02612618       0.12239480      -0.00217695      -0.00036889      -0.00402819
Si       0.28781100       2.88224422       4.35189478       0.00217695       0.00036889       0.00402819
4
Lattice="7.172441200790347 -0.027443453158571513 -0.1750280966218285 0.04478089666704062 7.250122928485789 0.08420492999682082 0.08734756343933472 -0.11710959716925458 7.5109692331942925" Properties=species:S:1:pos:R:3:dft_force:R:3 dft_energy=-16.842796948042842 volume=390.77003240436176 dft_virial="-4.2810897266126e-05 -2.5695240765325242e-05 -1.584828351681364e-05 -2.5695240765325242e-05 -8.84295722324842e-05 1.1943219125229252e-05 -1.584828351681364e-05 1.1943219125229252e-05 -9.86459391834603e-05" id=2283 pbc="T T T"
Si       0.09386606      -0.02612596       0.12239452       0.01020569      -0.00380771      -0.00476624
Si       3.95215721       3.62009437      -0.04424595      -0.01070668       0.00176398      -0.00725947
Si       3.96277027       0.14502463       3.57562673      -0.01056341      -0.00276236       0.00549237
Si       0.10252658       3.57676837       3.57632995       0.01106440       0.00480609       0.00653334
2
Lattice="4.956405445964625 -0.07872442187922615 -0.020310001599766682 -2.554234823705892 4.442019991731798 0.03381770724680795 0.14976827869204581 -0.14944749768239057 8.789133874573722" Properties=species:S:1:pos:R:3:dft_force:R:3 dft_energy=-8.42513713153104 volume=191.76862962119654 dft_virial="-9.946548040855572e-05 -2.236270569825516e-05 5.717819232399495e-06 -2.2362705698255153e-05 -7.10639384825476e-05 -3.4225914981295443e-06 5.717819232399495e-06 -3.4225914981295456e-06 -1.299711234263503e-05" id=2328 pbc="T T T"
Si       0.09386536      -0.02612665       0.12239382      -0.00091360      -0.00020929      -0.00523920
Si       0.28780931       2.88224623       4.35189243       0.00091360       0.00020929       0.00523920
2
Lattice="6.7867926395989855 0.0 0.0 3.683027084016386 5.9083685683756935 0.0 3.4899405377804986 1.8887000033400985 5.463207674923725" Properties=species:S:1:pos:R:3:dft_force:R:3 dft_energy=-8.435368119200477 volume=219.06846697010468 dft_virial="-0.0010278265824386313 0.013163699904569238 0.013414153479169504 0.013163699904569245 -0.0009872093193895365 0.007210663018974559 0.013414153479169508 0.007210663018974556 -0.0013125587224088037" id=314 pbc="T T T"
Si       0.00000000       0.00000000       0.00000000      -0.00267162      -0.00596813       0.01518234
Si       3.41417735       1.97117657       1.39383364       0.00267162       0.00596813      -0.01518234
2
Lattice="4.947990060894658 -0.05932685564147377 -0.10360011517965617 -2.4762087312187604 4.4900573589431 -0.039018649281525486 0.22412682851102655 0.08362605019306421 8.646460156876836" Properties=species:S:1:pos:R:3:dft_force:R:3 dft_energy=-8.425589321914568 volume=190.96848323858174 dft_virial="-8.588578906300834e-05 2.0353348762441517e-05 -2.786559414467735e-06 2.0353348762441507e-05 -1.1952378645998667e-05 -1.564082983124535e-05 -2.7865594144677325e-06 -1.564082983124535e-05 -3.7983893231725536e-05" id=2373 pbc="T T T"
Si       0.09386317      -0.02612590       0.12239312       0.00011501       0.00105745      -0.00129179
Si       0.28780570       2.88224819       4.35189300      -0.00011501      -0.00105745       0.00129179
2
Lattice="5.126164551513988 -0.04213667848989676 -0.03683516523082664 -2.5415186865379344 4.436483509926393 -0.11255025494836998 -0.15744393047052826 0.1689768723173356 8.814388117811438" Properties=species:S:1:pos:R:3:dft_force:R:3 dft_energy=-8.42563913134054 volume=199.60097986548627 dft_virial="8.289248044637854e-05 1.0872456416190929e-05 -5.61761887355635e-06 1.0872456416190929e-05 6.524143380031919e-05 3.43262486805633e-05 -5.617618873556353e-06 3.4326248680563314e-05 7.767205272664665e-05" id=2341 pbc="T T T"
Si       0.09386570      -0.02612699       0.12239425      -0.00086162       0.00134426      -0.00171552
Si       0.28780691       2.88224842       4.35189500       0.00086162      -0.00134426       0.00171552
2
Lattice="7.223818262084439 0.0 0.0 3.5552324651124434 6.068653248540326 0.0 4.28245199019993 2.1320721617522773 5.72790728237843" Properties=species:S:1:pos:R:3:dft_force:R:3 dft_energy=-8.454091689802166 volume=251.10485764429475 dft_virial="-0.0001124377856056198 0.010122250271379668 0.01309403917614545 0.01012225027137967 -0.0004289643989825326 0.00651221566511898 0.013094039176145454 0.006512215665118981 -0.000416109562251635" id=243 pbc="T T T"
Si       0.00000000       0.00000000       0.00000000      -0.01256377       0.00472394      -0.00096216
Si       3.57710444       2.06524445       1.46034715       0.01256377      -0.00472394       0.00096216
2
Lattice="5.108758699919807 0.22349930715682206 0.022496565904048665 -2.4419478642984664 4.170293796730635 0.13121851918284552 -0.1095091942850547 0.05020973967238802 8.875775889867167" Properties=species:S:1:pos:R:3:dft_force:R:3 dft_energy=-8.423523910343658 volume=193.91343452494132 dft_virial="-2.893162949833841e-05 1.601137753915866e-05 1.3197175988530365e-05 1.6011377539158664e-05 -0.00014253276522128416 1.0861106287951717e-05 1.3197175988530365e-05 1.0861106287951717e-05 -2.1097884584532758e-05" id=2349 pbc="T T T"
Si       0.09386300      -0.02612779       0.12239165      -0.00015390       0.00089057      -0.00907808
Si       0.28780614       2.88224713       4.35189085       0.00015390      -0.00089057       0.00907810
2
Lattice="6.723762714438217 0.0 0.0 3.513832345174142 5.839709149089664 0.0 3.7007262588996306 2.2697405996573896 5.710895967804549" Properties=species:S:1:pos:R:3:dft_force:R:3 dft_energy=-8.438402794725071 volume=224.23729444668396 dft_virial="-0.0010853663363148292 0.012368897434982264 0.013297341598050226 0.012368897434982266 -0.0011693528654959653 0.008190085315342975 0.013297341598050226 0.008190085315342974 -0.0006303965250202104" id=305 pbc="T T T"
Si       0.00000000       0.00000000       0.00000000       0.01053141       0.01466591      -0.01489158
Si       3.43223698       1.98160247       1.40120259      -0.01053141      -0.01466591       0.01489158
2
Lattice="4.889376576865231 0.04203306480648353 0.025719720576732875 -2.4309062701413233 4.451684674742755 0.021336066193654735 -0.2511740438957865 0.05004890508192112 8.764065221338708" Properties=species:S:1:pos:R:3:dft_force:R:3 dft_energy=-8.42501280518711 volume=191.67399880872597 dft_virial="-0.0001776490118262525 -1.7822535001770065e-05 -3.6246485090174642e-06 -1.7822535001770055e-05 2.5947216418196075e-05 4.096679100788895e-05 -3.6246485090174634e-06 4.096679100788896e-05 -3.173302954437427e-05" id=2353 pbc="T T T"
Si       0.09386338      -0.02612868       0.12239329      -0.00134902       0.00091179      -0.00564648
Si       0.28780827       2.88224698       4.35189045       0.00134902      -0.00091179       0.00564648
4
Lattice="7.23030221477421 -0.1059791102952088 0.005322356938224743 0.14611190430529114 7.19726250777291 -0.1167027202373614 0.01526789104582394 -0.1765874986198697 7.346866248011286" Properties=species:S:1:pos:R:3:dft_force:R:3 dft_energy=-16.843584497749305 volume=382.2832676955504 dft_virial="-9.721597928890112e-05 -3.508449541910773e-05 1.0118387387501756e-07 -3.508449541910774e-05 -0.00012973703622696448 1.6105250928483977e-05 1.0118387387501746e-07 1.610525092848397e-05 -0.00017213877750810953" id=2323 pbc="T T T"
Si       0.09386238      -0.02612518       0.12239563       0.00835239      -0.00363389      -0.00522453
Si       3.95215137       3.62009690      -0.04424518      -0.00764209       0.00136998      -0.00307441
Si       3.96277237       0.14502261       3.57562507      -0.00911927      -0.00284209       0.00459425
Si       0.10252533       3.57676812       3.57633277       0.00840897       0.00510599       0.00370469
4
Lattice="7.4184675362363475 0.1532449590216098 -0.20526250519112108 0.03165689990960461 7.187355240619334 -0.01781497730016203 -0.1580191820001256 -0.012176998304602291 7.509809338196258" Properties=species:S:1:pos:R:3:dft_force:R:3 dft_energy=-16.845188875129725 volume=400.14608145722553 dft_virial="2.8535241336038854e-05 2.8692580556155503e-05 4.132594676301325e-06 2.8692580556155503e-05 6.53409351059858e-05 -1.8604513469437836e-05 4.132594676301324e-06 -1.8604513469437836e-05 -1.9144502117770677e-05" id=2295 pbc="T T T"
Si       0.09386491      -0.02612970       0.12239665       0.00382924      -0.00243901      -0.00473131
Si       3.95215640       3.62009824      -0.04424486      -0.00610962       0.00175639      -0.00608420
Si       3.96277231       0.14502403       3.57562665      -0.00253681      -0.00034185       0.00531159
Si       0.10252533       3.57677015       3.57633415       0.00481721       0.00102448       0.00550392
2
Lattice="5.048475964112715 0.02254634129017131 -0.025171076390970274 -2.5006736736487416 4.4557061631140495 -0.025979973658616335 0.09099945917517402 0.12551128172481826 8.47836503076925" Properties=species:S:1:pos:R:3:dft_force:R:3 dft_energy=-8.42553325538321 volume=191.22933212996566 dft_virial="-3.59898525026144e-05 1.5342208955546184e-05 7.2388176198504775e-06 1.5342208955546184e-05 2.5901415647251506e-05 1.636387908070953e-08 7.2388176198504775e-06 1.6363879080709876e-08 -0.00010888380122741431" id=2345 pbc="T T T"
Si       0.09386657      -0.02612724       0.12239673       0.00009695       0.00103542       0.00076763
Si       0.28781221       2.88224496       4.35189521      -0.00009695      -0.00103542      -0.00076763
2
Lattice="6.8973888610427085 0.0 0.0 2.6354385095688437 5.869519578705636 0.0 3.2443158258277656 1.8800393885109385 5.45693945336834" Properties=species:S:1:pos:R:3:dft_force:R:3 dft_energy=-8.434162728125186 volume=220.920695663171 dft_virial="-0.0007824895764736441 0.009013414510480095 0.01217804749001494 0.009013414510480095 -0.0009577773229126093 0.007043840252383931 0.012178047490014936 0.007043840252383929 -0.001229822096991783" id=313 pbc="T T T"
Si       0.00000000       0.00000000       0.00000000      -0.00728735      -0.00729182       0.01738807
Si       3.41418081       1.97117667       1.39383330       0.00728735       0.00729182      -0.01738807
4
Lattice="7.26769210910892 0.005775910105396174 -0.062320824329763366 0.043229998436560245 7.311867480833847 0.1642188253944466 0.1802280371017 0.2917953510063459 7.219065449702915" Properties=species:S:1:pos:R:3:dft_force:R:3 dft_energy=-16.844180750775568 volume=383.35549061802357 dft_virial="-6.591711060094976e-05 6.203658604859074e-06 3.3990236271174634e-05 6.203658604859076e-06 -0.00014643440189798278 5.81275215829143e-06 3.399023627117462e-05 5.8127521582914276e-06 -0.00014054900492141387" id=2307 pbc="T T T"
Si       0.09386338      -0.02612756       0.12239834       0.00719679      -0.00323979      -0.00139942
Si       3.95215612       3.62009675      -0.04424928      -0.00649780       0.00412169      -0.00375586
Si       3.96277424       0.14502418       3.57562233      -0.00796648      -0.00323631       0.00315719
Si       0.10253032       3.57677317       3.57633071       0.00726749       0.00235442       0.00199810
2
Lattice="6.993679855723014 0.0 0.0 3.617103988158816 6.236494943477338 0.0 3.724294923125963 2.431083526451813 5.874043583047991" Properties=species:S:1:pos:R:3:dft_force:R:3 dft_energy=-8.457666380610537 volume=256.20257307833367 dft_virial="-0.0004319980747496844 0.009862873731746774 0.01076380269126305 0.00986287373174677 -0.0001846252316914127 0.00703021690570251 0.010763802691263046 0.00703021690570251 -0.00015968174495387976" id=258 pbc="T T T"
Si       0.00000000       0.00000000       0.00000000       0.01444205      -0.00842907      -0.01230336
Si       3.54723235       2.04799520       1.44815146      -0.01444204       0.00842907       0.01230336
4
Lattice="7.147621783533909 -0.01902357054042769 0.16765277901633283 -0.15564215219974256 7.167190993595561 -0.052983479678113725 0.0915367839014501 -0.058044544185086464 7.127046747845163" Properties=species:S:1:pos:R:3:dft_force:R:3 dft_energy=-16.837792746099247 volume=364.95552342455835 dft_virial="-0.00035349752679064337 -3.916865016512848e-05 6.715497703881114e-05 -3.916865016512848e-05 -0.00029683073166166457 -3.1811547946961063e-05 6.715497703881114e-05 -3.1811547946961063e-05 -0.00029116613304845657" id=2308 pbc="T T T"
Si       0.09386549      -0.02612809       0.12239917       0.01557616      -0.00005785      -0.00333249
Si       3.95215120       3.62009679      -0.04424525      -0.01620640       0.00021728       0.00215458
Si       3.96276751       0.14502442       3.57562478      -0.01610970      -0.00333069       0.00379669
Si       0.10252868       3.57676822       3.57633243       0.01673994       0.00317127      -0.00261878
2
Lattice="4.937572492098388 0.14207374854957833 -0.17635793469025013 -2.61273473519523 4.342918690845255 0.09209381847120605 0.11784545652218385 -0.3659718635077414 8.760827062240592" Properties=species:S:1:pos:R:3:dft_force:R:3 dft_energy=-8.425467514195516 volume=191.20419573159757 dft_virial="-0.00015219484710222588 -1.2472740105758998e-05 2.6312421390810217e-05 -1.2472740105758985e-05 5.106893882906502e-06 -3.895341271106609e-05 2.6312421390810217e-05 -3.8953412711066105e-05 -3.6297142187352314e-05" id=2350 pbc="T T T"
Si       0.09386655      -0.02612875       0.12239705      -0.00218101      -0.00007582      -0.00390590
Si       0.28781264       2.88224434       4.35189572       0.00218101       0.00007581       0.00390589
4
Lattice="7.380397964106392 0.03717524034421429 -0.04931023003706615 -0.03542559961720703 7.07421278329803 0.21048311927479596 -0.1453101313051349 -0.12521421677802708 7.4063540705240545" Properties=species:S:1:pos:R:3:dft_force:R:3 dft_energy=-16.84526788667941 volume=386.8417141743198 dft_virial="-9.122279950817971e-05 -1.987140371733758e-05 2.574018536465556e-05 -1.987140371733758e-05 -4.8288558762402906e-05 3.7726074706164416e-05 2.574018536465556e-05 3.7726074706164416e-05 -0.00010209500018231731" id=2325 pbc="T T T"
Si       0.09386109      -0.02612728       0.12239554       0.00534234       0.00039917      -0.00566422
Si       3.95215468       3.62009646      -0.04424559      -0.00661092      -0.00033465      -0.00584586
Si       3.96277107       0.14502185       3.57562454      -0.00424291       0.00106870       0.00489261
Si       0.10252805       3.57677111       3.57633198       0.00551149      -0.00113323       0.00661749
2
Lattice="7.659076990643369 0.0 0.0 3.6579598669732247 6.104850952457533 0.0 3.509682506604464 1.8198591703461062 5.730089916052373" Properties=species:S:1:pos:R:3:dft_force:R:3 dft_energy=-8.45402617480316 volume=267.9248136850327 dft_virial="0.00024923662358399695 0.009415586666184965 0.00961449729538897 0.009415586666184967 -0.00028335704059008986 0.005110228960958182 0.009614497295388972 0.005110228960958181 -0.0004128853837466561" id=226 pbc="T T T"
Si       0.00000000       0.00000000       0.00000000      -0.02589245       0.01310114       0.01898963
Si       3.64867487       2.10656256       1.48956553       0.02589244      -0.01310114      -0.01898963
2
Lattice="6.838926403925161 0.0 0.0 3.2795629975042853 5.932466355916921 0.0 4.531950640708145 1.7052926343145443 5.361512063526989" Properties=species:S:1:pos:R:3:dft_force:R:3 dft_energy=-8.427167183681354 volume=217.525663287076 dft_virial="-0.0008793409403158263 0.011557557911086664 0.017890487691366728 0.011557557911086664 -0.000865578809795605 0.006503469480160765 0.017890487691366728 0.006503469480160762 -0.0012156451820584217" id=323 pbc="T T T"
Si       0.00000000       0.00000000       0.00000000      -0.00038618      -0.00805339       0.00613295
Si       3.39732718       1.96144425       1.38695347       0.00038618       0.00805339      -0.00613295
2
Lattice="7.273397116690121 0.0 0.0 3.599726066716757 6.34717242314442 0.0 3.687207158204058 1.9749830084643862 5.814638152594254" Properties=species:S:1:pos:R:3:dft_force:R:3 dft_energy=-8.460824314242368 volume=268.4357102050629 dft_virial="-0.00010029614752509956 0.008900710694543245 0.010002303770080212 0.008900710694543245 2.4680423791003345e-05 0.005296549292647681 0.010002303770080212 0.005296549292647681 -0.00021074820045772943" id=251 pbc="T T T"
Si       0.00000000       0.00000000       0.00000000      -0.00297468      -0.01392613      -0.00695591
Si       3.54722664       2.04799069       1.44814726       0.00297468       0.01392613       0.00695592
4
Lattice="7.411140236571678 -0.3599542952255281 -0.29041980046296956 -0.16140972861292915 7.079301966929737 -0.021926416634987827 -0.14042860967726287 -0.08673219302411159 7.399918230261417" Properties=species:S:1:pos:R:3:dft_force:R:3 dft_energy=-16.844128242996778 volume=387.5039662221563 dft_virial="-0.00017351237742036914 -9.743928380306346e-05 -2.2817698779421816e-05 -9.743928380306349e-05 -5.2289486271300184e-05 3.657181526853641e-05 -2.281769877942183e-05 3.657181526853642e-05 -5.978257077064657e-05" id=2298 pbc="T T T"
Si       0.09386702      -0.02612998       0.12239490       0.00959464       0.00270823      -0.00481249
Si       3.95215271       3.62009382      -0.04424845      -0.01275983      -0.00428503      -0.00458710
Si       3.96277116       0.14502437       3.57562359      -0.00719935       0.00019237       0.00416756
Si       0.10253085       3.57676778       3.57633016       0.01036454       0.00138444       0.00523202
4
Lattice="7.395509404726359 -0.23554638679035633 -0.04424704903683383 0.37566859627377236 7.412898607833381 -0.24672324754350045 -0.15455493606846163 -0.1796688104496395 7.248131289431262" Properties=species:S:1:pos:R:3:dft_force:R:3 dft_energy=-16.845071154468084 volume=397.61507042460585 dft_virial="3.9773074031095805e-06 -1.1299399577393152e-05 -1.5832711859449273e-05 -1.1299399577393154e-05 -3.418580277322383e-05 2.9382269583364434e-06 -1.5832711859449276e-05 2.938226958336443e-06 1.1864985322774854e-05" id=2290 pbc="T T T"
Si       0.09386631      -0.02612947       0.12239437       0.00418089      -0.00675642      -0.00288821
Si       3.95215489       3.62009592      -0.04424338      -0.00472392       0.00457529      -0.00032112
Si       3.96277424       0.14502080       3.57562167      -0.00320258      -0.00397030       0.00119868
Si       0.10252743       3.57676930       3.57633024       0.00374558       0.00615140       0.00201067
2
Lattice="7.173271867702949 0.0 0.0 3.318984574190104 6.372211294295711 0.0 3.4974276326862657 1.7071086611203097 5.831726945939246" Properties=species:S:1:pos:R:3:dft_force:R:3 dft_energy=-8.459502491316945 volume=266.5659294075031 dft_virial="-0.00018183275039868632 0.008205089523561963 0.009536255937901557 0.008205089523561963 4.4578050245944537e-05 0.004504550894153469 0.009536255937901557 0.004504550894153468 -0.00019948202594623993" id=242 pbc="T T T"
Si       0.00000000       0.00000000       0.00000000       0.00436782      -0.00448886       0.00349215
Si       3.57710221       2.06524417       1.46034607      -0.00436782       0.00448886      -0.00349215
2
Lattice="5.245730735953473 -0.019053371521413037 0.04855704189557406 -2.718636725767293 4.312611187669462 -0.14197884650359963 -0.1747227735718727 -0.2034037138831554 8.947660183476653" Properties=species:S:1:pos:R:3:dft_force:R:3 dft_energy=-8.425218730830663 volume=201.86909404040958 dft_virial="8.876560536535929e-05 -3.934599127324176e-05 2.671663225765913e-05 -3.934599127324178e-05 2.9990790667985405e-05 -2.2982443256999916e-05 2.671663225765913e-05 -2.2982443256999906e-05 0.00013062327119585073" id=2376 pbc="T T T"
Si       0.09386566      -0.02612575       0.12239879      -0.00243970       0.00046277      -0.00328237
Si       0.28780525       2.88224819       4.35189446       0.00243970      -0.00046277       0.00328237
2
Lattice="4.992606986025864 -0.09655147452932454 -0.17218706346880489 -2.446895923183187 4.5284966748866 0.2539881484515342 0.08350601478962798 0.14253393465544723 8.681152391579598" Properties=species:S:1:pos:R:3:dft_force:R:3 dft_energy=-8.424853204732539 volume=194.1636526463143 dft_virial="-8.021418750213174e-05 4.179967110620953e-05 -1.9142224604467743e-05 4.179967110620951e-05 7.311415723507043e-05 2.8605518283224668e-05 -1.914222460446774e-05 2.8605518283224668e-05 -6.657476882506498e-05" id=2352 pbc="T T T"
Si       0.09386385      -0.02612529       0.12239372       0.00065773       0.00175707      -0.00701897
Si       0.28781202       2.88224396       4.35188845      -0.00065773      -0.00175708       0.00701897
2
Lattice="6.716691359279868 0.0 0.0 3.524743623817731 5.855883314990337 0.0 3.4254687515866413 2.440738137222526 5.417848578754332" Properties=species:S:1:pos:R:3:dft_force:R:3 dft_energy=-8.427318389296058 volume=213.0956918295692 dft_virial="-0.0012022496059649207 0.01319959591590843 0.013819409569617006 0.013199595915908434 -0.0011840406707000403 0.009909269787405696 0.013819409569617006 0.009909269787405695 -0.001475114686376843" id=327 pbc="T T T"
Si       0.00000000       0.00000000       0.00000000       0.00078503      -0.00326512       0.01527092
Si       3.39732258       1.96144458       1.38695298      -0.00078503       0.00326512      -0.01527092
2
Lattice="5.026014547114584 0.057833820824929445 0.025909694744041502 -2.6147154327354953 4.341794114828491 -0.004144679617357963 -0.0763200099472973 0.012948063255233344 8.904760622550244" Properties=species:S:1:pos:R:3:dft_force:R:3 dft_energy=-8.425262720723513 volume=195.6735425944765 dft_virial="-1.7976215400818335e-05 -1.9837887478912486e-05 1.4352334026706122e-05 -1.9837887478912492e-05 -6.779271854665578e-06 3.064206061839357e-06 1.4352334026706122e-05 3.0642060618393577e-06 1.1599841461513041e-05" id=2362 pbc="T T T"
Si       0.09386752      -0.02612907       0.12239930      -0.00161368       0.00076859      -0.00536392
Si       0.28780984       2.88224732       4.35188871       0.00161368      -0.00076859       0.00536393
2
Lattice="7.002663613719485 0.0 0.0 3.416322477143452 6.004434685647168 0.0 3.9172019453800107 2.0702951250121364 5.467567273093236" Properties=species:S:1:pos:R:3:dft_force:R:3 dft_energy=-8.443185260647057 volume=229.89499957238482 dft_virial="-0.0005523292916685624 0.011110241271303242 0.014094312801644086 0.011110241271303237 -0.0006554736284761516 0.007435878902554902 0.014094312801644079 0.007435878902554901 -0.001186870986628677" id=281 pbc="T T T"
Si       0.00000000       0.00000000       0.00000000      -0.01375285      -0.00895567       0.02230165
Si       3.47275690       2.00499794       1.41774565       0.01375285       0.00895567      -0.02230165
4
Lattice="7.565635778548043 0.07890695052560376 -0.00040379667831003455 -0.05471240900679509 7.5342773041880395 0.06767861363282485 -0.07058493682345429 -0.002502261950661967 7.391722110113689" Properties=species:S:1:pos:R:3:dft_force:R:3 dft_energy=-16.843053248426386 volume=421.37257274951173 dft_virial="0.00016047864188103937 6.576993697471005e-06 -7.010788785941462e-07 6.576993697471e-06 0.00013386336071704623 7.4589149783706826e-06 -7.01078878594146e-07 7.458914978370685e-06 0.00010398076884951363" id=2291 pbc="T T T"
Si       0.09386831      -0.02613053       0.12239516       0.00032963      -0.00450192      -0.00141543
Si       3.95215409       3.62009465      -0.04424580      -0.00126256       0.00340817      -0.00455223
Si       3.96277033       0.14502219       3.57562119      -0.00056120      -0.00242582       0.00325466
Si       0.10252883       3.57676620       3.57633602       0.00149413       0.00351955       0.00271300
2
Lattice="7.025710713535421 0.0 0.0 3.702693463795366 5.90032778371541 0.0 3.3722937481657964 2.2371352651030962 5.680271066228864" Properties=species:S:1:pos:R:3:dft_force:R:3 dft_energy=-8.448928839391815 volume=235.46993475942642 dft_virial="-0.0004883020321596171 0.01190898246946545 0.011195251635660783 0.011908982469465446 -0.0008695357046392274 0.007634062656065035 0.011195251635660779 0.007634062656065035 -0.000634095545341697" id=272 pbc="T T T"
Si       0.00000000       0.00000000       0.00000000      -0.01044256       0.01283084       0.00167037
Si       3.49552642       2.01814341       1.42704314       0.01044256      -0.01283084      -0.00167037
2
Lattice="6.677505998359627 0.0 0.0 3.4299209463362597 5.816560004062999 0.0 3.030835355254917 1.9662959374694817 5.6388558284815655" Properties=species:S:1:pos:R:3:dft_force:R:3 dft_energy=-8.433623323223733 volume=219.0138049950203 dft_virial="-0.0012005881216898735 0.012495339900900721 0.011254204702353488 0.012495339900900721 -0.0013004925920999724 0.007307396278141725 0.011254204702353488 0.007307396278141726 -0.0008368033309929456" id=302 pbc="T T T"
Si       0.00000000       0.00000000       0.00000000       0.01343548       0.01976230      -0.00543016
Si       3.43223386       1.98160147       1.40120492      -0.01343548      -0.01976230       0.00543017
2
Lattice="5.032532250312941 -0.05265396813376273 0.05654449848461977 -2.3899119310937627 4.46563185509734 -0.06533440837522657 0.09070949959861144 0.06680663730713877 8.786726155621075" Properties=species:S:1:pos:R:3:dft_force:R:3 dft_energy=-8.425376581821821 volume=196.35256883029447 dft_virial="4.543979394168875e-06 1.5071086495115229e-05 -6.488736366145668e-06 1.5071086495115222e-05 3.1651073885059196e-05 -1.028478942540372e-05 -6.488736366145668e-06 -1.0284789425403724e-05 4.0868616857292665e-05" id=2369 pbc="T T T"
Si       0.09386434      -0.02612786       0.12239161       0.00025592       0.00063091      -0.00378357
Si       0.28781052       2.88224708       4.35188960      -0.00025592      -0.00063091       0.00378357
4
Lattice="7.1313111038179935 0.010417531001746975 0.05476685201644556 0.14352639991883942 7.421129687914414 -0.12170263320694126 -0.05959018897694038 0.06191396629513144 7.446356926965807" Properties=species:S:1:pos:R:3:dft_force:R:3 dft_energy=-16.842218538365607 volume=394.1463477038933 dft_virial="-6.342886242702617e-05 -5.322854965886364e-06 2.3625470730952686e-05 -5.322854965886362e-06 -5.9749157467804414e-05 1.252249177258411e-05 2.3625470730952676e-05 1.252249177258411e-05 -5.8054456624627714e-05" id=2310 pbc="T T T"
Si       0.09386236      -0.02612544       0.12239885       0.01122031      -0.00632130      -0.00709637
Si       3.95215341       3.62009845      -0.04424387      -0.01003469       0.00570551      -0.00553298
Si       3.96277260       0.14502418       3.57562492      -0.01102445      -0.00522792       0.00695787
Si       0.10252730       3.57676903       3.57633222       0.00983883       0.00584370       0.00567150
2
Lattice="7.0524900224474925 0.0 0.0 4.43731882556526 6.019478795325314 0.0 3.5568746371147433 2.3700699390660205 5.524960145224246" Properties=species:S:1:pos:R:3:dft_force:R:3 dft_energy=-8.442611083045941 volume=234.54734372016188 dft_virial="-0.00038687733917305167 0.014120850476544407 0.012180589856439494 0.014120850476544404 -0.0005382393382233406 0.008193508229597007 0.012180589856439493 0.008193508229597008 -0.0008809762362438475" id=286 pbc="T T T"
Si       0.00000000       0.00000000       0.00000000      -0.00624015      -0.02160916       0.00746335
Si       3.47275739       2.00499896       1.41774898       0.00624015       0.02160916      -0.00746336
2
Lattice="6.898033257651205 0.0 0.0 2.934665303046587 6.070397465753356 0.0 3.6356988932251335 2.356000928068182 5.793486448081318" Properties=species:S:1:pos:R:3:dft_force:R:3 dft_energy=-8.451025560185222 volume=242.59531372056395 dft_virial="-0.000595562819208696 0.008714960324863385 0.011472649952155871 0.008714960324863385 -0.0005094833356619532 0.007403558074297155 0.011472649952155871 0.007403558074297155 -0.0003270879134063247" id=264 pbc="T T T"
Si       0.00000000       0.00000000       0.00000000       0.01811669      -0.00080997      -0.00338469
Si       3.52022642       2.03240521       1.43712646      -0.01811669       0.00080997       0.00338469
2
Lattice="7.243087799377248 0.0 0.0 3.6253356351576858 6.4434974328949695 0.0 4.073376471223583 2.3706595336169043 5.841162348479502" Properties=species:S:1:pos:R:3:dft_force:R:3 dft_energy=-8.459018409751634 volume=272.6118227804007 dft_virial="-6.230925335916235e-05 0.008720809185775133 0.010895851006059073 0.008720809185775133 0.00012708017550612305 0.00628805973253491 0.010895851006059077 0.006288059732534912 -0.0001607941885174474" id=237 pbc="T T T"
Si       0.00000000       0.00000000       0.00000000       0.00311387      -0.01656582      -0.00652426
Si       3.61064961       2.08460562       1.47404069      -0.00311388       0.01656582       0.00652426
4
Lattice="7.351459076179099 0.11091658671363101 0.14688361176280457 0.12188699488765974 7.319283162989365 0.059723546949555215 -0.07893183821866508 0.04405541191053553 7.265288982190757" Properties=species:S:1:pos:R:3:dft_force:R:3 dft_energy=-16.844852937529108 volume=390.89394749757804 dft_virial="-7.502586541289336e-05 3.0011828904843073e-06 4.547881706613446e-05 3.0011828904843073e-06 -5.871667730668399e-05 1.1723860852407063e-05 4.547881706613446e-05 1.1723860852407063e-05 -2.7081147605422402e-05" id=2315 pbc="T T T"
Si       0.09386704      -0.02612854       0.12239293       0.00651319      -0.00427877      -0.00235244
Si       3.95215714       3.62009558      -0.04424556      -0.00559761       0.00450512      -0.00387157
Si       3.96277080       0.14502042       3.57562499      -0.00587176      -0.00265975       0.00348551
Si       0.10252930       3.57676731       3.57633649       0.00495618       0.00243339       0.00273850
2
Lattice="7.127351522874543 0.0 0.0 2.981700586288522 6.1675482858203665 0.0 3.78248714940769 1.7581709507338226 5.720582703919381" Properties=species:S:1:pos:R:3:dft_force:R:3 dft_energy=-8.454714022424831 volume=251.46700296197307 dft_virial="-0.00027431078902376114 0.008125617672767179 0.01147778254330528 0.008125617672767179 -0.0002674470275832794 0.005169042219802246 0.01147778254330528 0.005169042219802247 -0.00041805491030413373" id=268 pbc="T T T"
Si       0.00000000       0.00000000       0.00000000      -0.00230598      -0.00402160       0.00361045
Si       3.52022826       2.03240326       1.43712479       0.00230598       0.00402160      -0.00361045
2
Lattice="5.113895372369027 0.07834564517480616 -0.06760064353292278 -2.5540187524208027 4.361532852220782 -0.0420756214388101 -0.08163562056325713 -0.10732945189208264 8.77862588238239" Properties=species:S:1:pos:R:3:dft_force:R:3 dft_energy=-8.425679950710489 volume=197.4933267937983 dft_virial="6.500700963325305e-05 3.747651690844937e-05 1.5670555895527173e-06 3.747651690844936e-05 3.3162108075623434e-05 4.4243668477015365e-06 1.5670555895527165e-06 4.4243668477015365e-06 3.864370193882723e-05" id=2334 pbc="T T T"
Si       0.09386338      -0.02612902       0.12239272      -0.00150190       0.00063587      -0.00222187
Si       0.28781018       2.88224577       4.35188916       0.00150189      -0.00063587       0.00222188
2
Lattice="6.77323574438092 0.0 0.0 3.4488560021050096 5.738306445242245 0.0 3.42204078839657 2.0730862504982084 5.374458577206799" Properties=species:S:1:pos:R:3:dft_force:R:3 dft_energy=-8.42128991768112 volume=208.88855658148222 dft_virial="-0.001147629394183911 0.013504935944275372 0.014292430277111542 0.01350493594427537 -0.001547984215038009 0.008807855183205648 0.014292430277111542 0.008807855183205648 -0.0017797268060013606" id=320 pbc="T T T"
Si       0.00000000       0.00000000       0.00000000      -0.01767373       0.01001210       0.02877564
Si       3.39732189       1.96144584       1.38695428       0.01767373      -0.01001210      -0.02877564
2
Lattice="7.085265432353002 0.0 0.0 3.70633496603752 5.9431773235913 0.0 3.471829402602085 1.902245560201416 5.740186722736248" Properties=species:S:1:pos:R:3:dft_force:R:3 dft_energy=-8.453046567222406 volume=241.71345869994434 dft_virial="-0.00040227149941162723 0.01138675284470749 0.010981896280170423 0.01138675284470749 -0.0007243215466477989 0.00610744342724312 0.010981896280170423 0.00610744342724312 -0.00045936945959064636" id=276 pbc="T T T"
Si       0.00000000       0.00000000       0.00000000      -0.01229726       0.01216614      -0.00464332
Si       3.49552209       2.01813980       1.42703912       0.01229726      -0.01216614       0.00464332
2
Lattice="7.169108801050398 0.0 0.0 2.9701430213103106 6.036688531142281 0.0 3.7149880219621814 1.8948661796847523 5.8362641783644715" Properties=species:S:1:pos:R:3:dft_force:R:3 dft_energy=-8.455233496348534 volume=252.57995528480714 dft_virial="-0.00020408452987296193 0.008239153124142131 0.010966626235519729 0.008239153124142131 -0.0004845340808154413 0.00554895449187277 0.010966626235519725 0.005548954491872768 -0.00021990976390817382" id=255 pbc="T T T"
Si       0.00000000       0.00000000       0.00000000      -0.00414238       0.01059262      -0.00200994
Si       3.54723325       2.04799450       1.44815223       0.00414238      -0.01059262       0.00200994
2
Lattice="7.167593240698449 0.0 0.0 3.4526902564118753 6.34363107638687 0.0 3.1724363132253752 1.9844656541577583 6.176628419849193" Properties=species:S:1:pos:R:3:dft_force:R:3 dft_energy=-8.458007153367241 volume=280.84244452925793 dft_virial="-0.00011378361210920174 0.008069354077343138 0.007532818071698788 0.008069354077343138 6.308075419678115e-06 0.00469320934080184 0.007532818071698788 0.00469320934080184 0.00023160951551979693" id=227 pbc="T T T"
Si       0.00000000       0.00000000       0.00000000       0.01655848       0.00827847      -0.00543592
Si       3.64867474       2.10656279       1.48956806      -0.01655848      -0.00827847       0.00543592
2
Lattice="4.991359124276729 -0.04963891010192231 0.1193464281884516 -2.5293837724341275 4.294485048065619 -0.13527290768596886 -0.01872896223759853 0.03684501070393594 8.86324097743456" Properties=species:S:1:pos:R:3:dft_force:R:3 dft_energy=-8.424893795338958 volume=188.8967778537166 dft_virial="-0.00012147794183291987 -4.177444810499384e-05 2.850241443696981e-05 -4.177444810499387e-05 -0.0001756191480932649 -1.9300482139305786e-05 2.8502414436969825e-05 -1.9300482139305786e-05 -4.005157174083799e-05" id=2371 pbc="T T T"
Si       0.09386478      -0.02612698       0.12239852      -0.00139451       0.00004936      -0.00387641
Si       0.28780638       2.88224797       4.35189360       0.00139451      -0.00004936       0.00387641
4
Lattice="7.150246613121014 -0.23217874365818325 0.1228956173094175 0.15258962089885084 7.278121866638694 -0.1887501728004473 -0.1194494938512887 0.13659890961035753 7.386378739420959" Properties=species:S:1:pos:R:3:dft_force:R:3 dft_energy=-16.84168651862615 volume=384.940063469338 dft_virial="-0.00013039707890363412 -8.355529590116095e-05 4.762233939279213e-05 -8.355529590116098e-05 -0.0001521735921609805 4.799264303812931e-06 4.762233939279213e-05 4.79926430381293e-06 -0.00012935872891421256" id=2311 pbc="T T T"
Si       0.09386455      -0.02612601       0.12239754       0.01142574      -0.00256801      -0.00688108
Si       3.95215636       3.62009456      -0.04424939      -0.01029741       0.00201923      -0.00392088
Si       3.96277320       0.14502620       3.57562100      -0.01387016      -0.00717036       0.00609682
Si       0.10252815       3.57677064       3.57633664       0.01274182       0.00771913       0.00470515
2
Lattice="4.958487829667656 -0.07428643787006502 0.06174047053962955 -2.400145176003836 4.411779989573177 0.02428825303732885 0.06023794929793959 0.11429158088042889 8.730473865487108" Properties=species:S:1:pos:R:3:dft_force:R:3 dft_energy=-8.42505838180368 volume=189.38188253191433 dft_virial="-0.00014056222116976984 2.568375131846269e-06 3.6201455143842675e-06 2.568375131846268e-06 -6.421867934567192e-05 1.1689520105115984e-05 3.6201455143842667e-06 1.1689520105115981e-05 -6.636694777375078e-05" id=2356 pbc="T T T"
Si       0.09386510      -0.02612724       0.12239552      -0.00015470       0.00103957      -0.00529041
Si       0.28781041       2.88224713       4.35189321       0.00015470      -0.00103957       0.00529040
2
Lattice="5.104857719383481 -0.07885583343393263 0.1113292273102043 -2.6576854993436134 4.464668586102573 -0.07627879502051921 -0.05771348306531328 -0.17421723403901282 8.94461566461453" Properties=species:S:1:pos:R:3:dft_force:R:3 dft_energy=-8.424868287323791 volume=201.99867759684997 dft_virial="9.970990965194599e-05 -2.454620708581174e-05 4.414561254914869e-05 -2.4546207085811734e-05 4.3876439764115034e-05 7.745364630572104e-06 4.414561254914869e-05 7.745364630572106e-06 8.651507980579691e-05" id=2361 pbc="T T T"
Si       0.09386334      -0.02612548       0.12239885      -0.00185753       0.00005003      -0.00523715
Si       0.28780563       2.88224793       4.35188928       0.00185753      -0.00005003       0.00523715
2
Lattice="7.458267133736135 0.0 0.0 3.6298558600477904 6.117332593510686 0.0 3.5986942762527114 2.3733901878669883 6.219485518629581" Properties=species:S:1:pos:R:3:dft_force:R:3 dft_energy=-8.456830978041681 volume=283.76216484960634 dft_virial="0.000109484433920098 0.008631972467432419 0.008436011321571603 0.00863197246743242 -0.0002577523943803437 0.005769320440722677 0.008436011321571603 0.005769320440722675 0.0002673973809325577" id=235 pbc="T T T"
Si       0.00000000       0.00000000       0.00000000      -0.00722195       0.01152292      -0.01997235
Si       3.61064369       2.08460918       1.47403672       0.00722195      -0.01152292       0.01997235
2
Lattice="4.84102201912391 -0.16786236854081504 0.020762534314830813 -2.459016210806789 4.446646494819152 -0.10142974582826222 -0.059168402105923903 -0.12385089276267708 8.740961316355465" Properties=species:S:1:pos:R:3:dft_force:R:3 dft_energy=-8.424299508586394 volume=184.50257762435263 dft_virial="-0.00024847466506604373 2.2675654414391e-06 2.0472861707483895e-05 2.2675654414390993e-06 -0.00020551078794291586 -3.190869699889912e-05 2.047286170748388e-05 -3.190869699889911e-05 -0.00011170984667173051" id=2347 pbc="T T T"
Si       0.09386285      -0.02612766       0.12239805      -0.00203318       0.00002020      -0.00335729
Si       0.28780899       2.88224625       4.35189198       0.00203318      -0.00002020       0.00335728
2
Lattice="7.241543893133429 0.0 0.0 3.8569366895395705 6.030325823280665 0.0 3.6303547477446916 2.1760460886723187 5.90078509743757" Properties=species:S:1:pos:R:3:dft_force:R:3 dft_energy=-8.458049853849895 volume=257.68061223844194 dft_virial="-0.00011960471316883139 0.010736215798751999 0.010266935163775437 0.010736215798752004 -0.0004847040051678686 0.006303405102860049 0.010266935163775442 0.0063034051028600475 -0.0001333517610848653" id=249 pbc="T T T"
Si       0.00000000       0.00000000       0.00000000      -0.01125738       0.01153193      -0.00821994
Si       3.57710591       2.06524623       1.46034991       0.01125738      -0.01153193       0.00821994
2
Lattice="5.131129561242046 -0.02964662815548896 -0.11127640946502099 -2.4194581203057277 4.364875116331102 -0.04696247209435359 0.20836864802216845 0.19275070410901882 8.726355982186195" Properties=species:S:1:pos:R:3:dft_force:R:3 dft_energy=-8.425547854742044 volume=195.01583058281938 dft_virial="1.3717266410040163e-05 1.8984537135037142e-05 3.871824749742393e-06 1.8984537135037156e-05 7.0279806420121415e-06 -2.8062775209267357e-06 3.8718247497423945e-06 -2.8062775209267344e-06 3.332243698913449e-05" id=2338 pbc="T T T"
Si       0.09386542      -0.02612548       0.12239822       0.00021516       0.00060935      -0.00161726
Si       0.28780735       2.88224494       4.35189183      -0.00021516      -0.00060935       0.00161727
2
Lattice="6.855816776027066 0.0 0.0 4.152986853401818 6.004750269909981 0.0 2.8515513686332965 2.3892752256705925 5.634131513170001" Properties=species:S:1:pos:R:3:dft_force:R:3 dft_energy=-8.442736369504644 volume=231.9429267270946 dft_virial="-0.0006712015434344955 0.013504123821683447 0.009646089361614959 0.013504123821683447 -0.0006911113228370464 0.008128111192972048 0.009646089361614957 0.008128111192972047 -0.0006291437664620251" id=269 pbc="T T T"
Si       0.00000000       0.00000000       0.00000000       0.01131657      -0.00043822      -0.00048804
Si       3.49552241       2.01813936       1.42704101      -0.01131657       0.00043822       0.00048804
2
Lattice="6.8154201006609405 0.0 0.0 3.362363237380888 5.9351214211220205 0.0 3.341306019174183 2.224173633614288 5.525130220575463" Properties=species:S:1:pos:R:3:dft_force:R:3 dft_energy=-8.440399854823188 volume=223.49342819672748 dft_virial="-0.0009305280240528726 0.011550053320924989 0.012323873399723911 0.011550053320924989 -0.0008973039852274038 0.008244552489272266 0.012323873399723911 0.008244552489272267 -0.0010876419823745798" id=304 pbc="T T T"
Si       0.00000000       0.00000000       0.00000000       0.00237012      -0.00312494       0.01019328
Si       3.43223490       1.98160225       1.40120618      -0.00237012       0.00312494      -0.01019328
2
Lattice="6.916253996944848 0.0 0.0 3.207560652703794 5.767674678945054 0.0 2.656777296968118 1.8041479873459674 5.5099160355461" Properties=species:S:1:pos:R:3:dft_force:R:3 dft_energy=-8.431909240853141 volume=219.79442441173836 dft_virial="-0.0007236796270790812 0.01143758943726991 0.009814885735594898 0.011437589437269914 -0.0012712806850814597 0.006862102632041583 0.009814885735594903 0.006862102632041584 -0.0010538319504508576" id=288 pbc="T T T"
Si       0.00000000       0.00000000       0.00000000      -0.01263958       0.02488551       0.00563900
Si       3.45169772       1.99284022       1.40915001       0.01263959      -0.02488551      -0.00563900
2
Lattice="5.314995906948749 0.16780554447624757 -0.043693850611110883 -2.720740047635785 4.122482384072055 -0.04379272108195131 -0.22809517778369567 -0.30699874569953634 8.711146540369405" Properties=species:S:1:pos:R:3:dft_force:R:3 dft_energy=-8.425713810867359 volume=194.69948900714536 dft_virial="7.699035990690049e-07 2.0632059326989852e-05 4.644495733417506e-09 2.0632059326989866e-05 -6.967790925552355e-05 -1.5793431226781435e-05 4.6444957334168395e-09 -1.579343122678143e-05 2.2844945799052456e-05" id=2343 pbc="T T T"
Si       0.09386453      -0.02612586       0.12239382      -0.00239074       0.00102565      -0.00166590
Si       0.28781162       2.88224632       4.35188833       0.00239074      -0.00102565       0.00166591
2
Lattice="7.121988480132855 0.0 0.0 3.4510461946834505 6.1489496013018 0.0 3.4339555116123357 2.0290934263169205 5.8884810906401315" Properties=species:S:1:pos:R:3:dft_force:R:3 dft_energy=-8.460050868246432 volume=257.8727698323671 dft_virial="-0.0002544189801695916 0.009342468636417068 0.009706484976243872 0.00934246863641707 -0.0003009766049813954 0.005752251305153001 0.009706484976243874 0.005752251305153002 -0.00014755617695366718" id=248 pbc="T T T"
Si       0.00000000       0.00000000       0.00000000       0.00314676       0.00691880      -0.00099184
Si       3.57711181       2.06524716       1.46034921      -0.00314676      -0.00691880       0.00099184
4
Lattice="7.226742329803379 -0.021167578212383104 0.15286640908432475 0.07642611806919504 7.168655380164056 0.1277510985112922 -0.15789419551424283 -0.26542238990285233 7.3477320071380205" Properties=species:S:1:pos:R:3:dft_force:R:3 dft_energy=-16.843307934715153 volume=381.08407523441326 dft_virial="-0.00015556698163500185 5.083031214906566e-06 3.421259835666502e-05 5.083031214906566e-06 -0.0001057590627579536 8.448704782211215e-06 3.421259835666502e-05 8.448704782211215e-06 -0.0001895443015569743" id=2292 pbc="T T T"
Si       0.09386317      -0.02612881       0.12239291       0.00935094      -0.00329941      -0.00616139
Si       3.95215154       3.62009779      -0.04424465      -0.00841739       0.00105575      -0.00400179
Si       3.96276740       0.14502367       3.57562541      -0.00999037      -0.00142244       0.00573190
Si       0.10253149       3.57676897       3.57632958       0.00905682       0.00366609       0.00443130
2
Lattice="6.748486001326696 0.0 0.0 2.885443606678459 6.119443417591893 0.0 3.535106881885179 2.718941727563807 5.580818559742059" Properties=species:S:1:pos:R:3:dft_force:R:3 dft_energy=-8.440182778992934 volume=230.4709426204312 dft_virial="-0.0009419238415656566 0.009165454013173925 0.012369250709562166 0.009165454013173925 -0.0004991806718444253 0.009485198577757193 0.012369250709562168 0.009485198577757195 -0.0007251376596348116" id=292 pbc="T T T"
Si       0.00000000       0.00000000       0.00000000       0.02694505      -0.01579905      -0.00028837
Si       3.45170253       1.99284153       1.40915110      -0.02694504       0.01579905       0.00028837
2
Lattice="5.03335651105398 -0.10030722961297327 -0.05306817720301945 -2.6306701447413143 4.4203383135272105 -0.013905304023662529 -0.012925292055431605 0.03898635386205563 9.011039216641684" Properties=species:S:1:pos:R:3:dft_force:R:3 dft_energy=-8.424907699496677 volume=198.11519197978527 dft_virial="1.0159644105001706e-07 -4.221080987510214e-05 1.2242735688279348e-05 -4.2210809875102125e-05 1.5273642484179273e-05 3.65585374343084e-06 1.2242735688279348e-05 3.6558537434308404e-06 2.602817245193761e-05" id=2335 pbc="T T T"
Si       0.09386670      -0.02612922       0.12239866      -0.00158060       0.00061705      -0.00501222
Si       0.28780901       2.88224606       4.35189413       0.00158060      -0.00061705       0.00501222
4
Lattice="7.438473594286229 -0.17577416049583075 -0.023556267622955058 -0.02742236381502069 7.50945773575351 0.09095051526854622 0.16186959346535684 0.09259257388727853 7.279381236819929" Properties=species:S:1:pos:R:3:dft_force:R:3 dft_energy=-16.84471690559136 volume=406.54662729322706 dft_virial="4.981366821170119e-05 8.59354163547529e-06 1.5712293851275962e-05 8.593541635475288e-06 1.3656884331367025e-05 -1.1804515635956136e-06 1.5712293851275962e-05 -1.1804515635956138e-06 8.928712777323926e-05" id=2301 pbc="T T T"
Si       0.09386769      -0.02612652       0.12239480       0.00385144      -0.00537837      -0.00069335
Si       3.95215103       3.62009654      -0.04424586      -0.00249991       0.00596722      -0.00421520
Si       3.96277258       0.14502480       3.57562134      -0.00603865      -0.00489538       0.00334219
Si       0.10252702       3.57676610       3.57633577       0.00468713       0.00430654       0.00156638
2
Lattice="6.76813726329668 0.0 0.0 2.8622037547978114 5.874243894017201 0.0 2.9763451024513325 1.462481724561379 5.565160289073409" Properties=species:S:1:pos:R:3:dft_force:R:3 dft_energy=-8.434976737939461 volume=221.25791196801035 dft_virial="-0.0010153271880985967 0.00989414585406823 0.010880548463170329 0.009894145854068224 -0.0009947817149496972 0.0052527698491356455 0.010880548463170324 0.005252769849135645 -0.0008642785473007601" id=312 pbc="T T T"
Si       0.00000000       0.00000000       0.00000000       0.00944858       0.00425177      -0.00309743
Si       3.41418382       1.97117922       1.39383334      -0.00944858      -0.00425177       0.00309743
2
Lattice="6.773352907400646 0.0 0.0 3.390013710036412 6.118001556558803 0.0 3.451135011811308 1.713798291601485 5.595809757088714" Properties=species:S:1:pos:R:3:dft_force:R:3 dft_energy=-8.445720953788703 volume=231.8869072478495 dft_virial="-0.0009705559056580126 0.010769494910473389 0.011983516459389875 0.010769494910473392 -0.0004899861667908905 0.005720833466698277 0.011983516459389875 0.005720833466698274 -0.0008249001318995492" id=301 pbc="T T T"
Si       0.00000000       0.00000000       0.00000000       0.01458590      -0.01334241       0.00158982
Si       3.43223046       1.98159977       1.40120195      -0.01458590       0.01334241      -0.00158982
2
Lattice="7.072899064593451 0.0 0.0 2.932008348115363 5.769715583159651 0.0 2.6115202460094555 1.7045556411259402 5.662069224196468" Properties=species:S:1:pos:R:3:dft_force:R:3 dft_energy=-8.437308779161034 volume=231.06120845877723 dft_virial="-0.00043129978780581034 0.009573227244855133 0.00860420792563428 0.009573227244855133 -0.0011032402542331102 0.0058550610423159085 0.00860420792563428 0.0058550610423159085 -0.0005602410333536125" id=289 pbc="T T T"
Si       0.00000000       0.00000000       0.00000000      -0.01361543       0.02784065      -0.00974139
Si       3.45169949       1.99283964       1.40914747       0.01361543      -0.02784065       0.00974139
2
Lattice="6.98165552839202 0.0 0.0 2.991067958688292 5.98105121458105 0.0 3.870395318999156 2.2891216307915516 5.655596912219625" Properties=species:S:1:pos:R:3:dft_force:R:3 dft_energy=-8.447927013783668 volume=236.1643757615342 dft_virial="-0.0005723719394811924 0.00922659177240066 0.012925201372878442 0.009226591772400662 -0.0006738347018183622 0.007648411959518412 0.012925201372878446 0.0076484119595184126 -0.0005825410931286953" id=306 pbc="T T T"
Si       0.00000000       0.00000000       0.00000000      -0.00087216      -0.00436507      -0.01210661
Si       3.43223533       1.98160013       1.40120240       0.00087216       0.00436507       0.01210661
2
Lattice="7.060564822178018 0.0 0.0 3.6070827705199253 6.237944363414926 0.0 3.8388614591575254 2.092951051520275 5.911972276095354" Properties=species:S:1:pos:R:3:dft_force:R:3 dft_energy=-8.459945928064437 volume=260.3834220277899 dft_virial="-0.0003022548405639286 0.009622352649274883 0.010834026385040942 0.009622352649274885 -0.00018279699739820107 0.005815444739556022 0.010834026385040947 0.0058154447395560235 -0.00011736258406244331" id=231 pbc="T T T"
Si       0.00000000       0.00000000       0.00000000       0.00746170       0.00096801      -0.00209330
Si       3.61064203       2.08460483       1.47403797      -0.00746170      -0.00096801       0.00209330
4
Lattice="7.331430587080117 0.05488429849509105 0.12649573454944205 0.1506867989721814 7.329439439354382 0.1360468639175706 -0.025354474311365206 0.23642979595909638 7.222742951227744" Properties=species:S:1:pos:R:3:dft_force:R:3 dft_energy=-16.844835243413762 volume=387.8483601576217 dft_virial="-5.8779071043271676e-05 -7.93770777414454e-06 6.817439522138463e-05 -7.93770777414454e-06 -0.00010431623810125141 -1.6661639285920223e-05 6.817439522138466e-05 -1.666163928592023e-05 -5.571359263020215e-05" id=2300 pbc="T T T"
Si       0.09386797      -0.02613077       0.12239355       0.00614405      -0.00388793      -0.00120377
Si       3.95215245       3.62009756      -0.04424282      -0.00608585       0.00503377      -0.00402135
Si       3.96277101       0.14502658       3.57562592      -0.00571547      -0.00249630       0.00344770
Si       0.10252739       3.57677085       3.57633445       0.00565729       0.00135046       0.00177742
4
Lattice="7.119567117357588 -0.038242519864880434 -0.1441516347044331 -0.01664629507564847 7.2921617947514745 -0.16326710262630134 -0.005052825301069369 0.1170379954463925 7.329711163073843" Properties=species:S:1:pos:R:3:dft_force:R:3 dft_energy=-16.841481891377594 volume=380.66318913769214 dft_virial="-0.00011293298216570107 -4.0976125871337044e-05 -3.048988194811033e-05 -4.0976125871337044e-05 -0.00017582358699762198 2.0856057030977304e-05 -3.048988194811033e-05 2.0856057030977304e-05 -0.0001843569351276149" id=2309 pbc="T T T"
Si       0.09386347      -0.02613024       0.12239858       0.01118871      -0.00335768      -0.00383958
Si       3.95215492       3.62009722      -0.04424694      -0.01180691       0.00320409      -0.00562989
Si       3.96277367       0.14502348       3.57562480      -0.01226292      -0.00522550       0.00350737
Si       0.10252581       3.57677120       3.57633122       0.01288113       0.00537908       0.00596210
4
Lattice="7.427872533083258 0.27967203982094424 -0.020501903287722428 -0.11496506037398427 7.497986077724925 0.036673234599207453 0.30615449165609854 0.13631388221898022 7.1437434419165555" Properties=species:S:1:pos:R:3:dft_force:R:3 dft_energy=-16.844809324639584 volume=398.10733451350865 dft_virial="-7.22598053707707e-06 -5.023593080264912e-07 4.769215286831638e-05 -5.023593080264917e-07 -2.7470712314411522e-05 2.2191507777451466e-05 4.7692152868316404e-05 2.2191507777451466e-05 4.757888810998399e-05" id=2284 pbc="T T T"
Si       0.09386680      -0.02613060       0.12239510       0.00504192      -0.00614832       0.00051699
Si       3.95215124       3.62009786      -0.04424463      -0.00412374       0.00541670      -0.00103804
Si       3.96277394       0.14502269       3.57562185      -0.00593066      -0.00449169       0.00201624
Si       0.10253079       3.57677034       3.57633534       0.00501248       0.00522332      -0.00149519
2
Lattice="6.9445035127818775 0.0 0.0 3.78445624402955 5.904853677783889 0.0 2.5856706823507 2.2702621640677862 5.708528140970393" Properties=species:S:1:pos:R:3:dft_force:R:3 dft_energy=-8.443513846082872 volume=234.08548682649572 dft_virial="-0.0005277194215712188 0.012207634434478391 0.008395637033857801 0.012207634434478391 -0.0008801505144976057 0.0075984863461358906 0.008395637033857801 0.00759848634613589 -0.0004710607207652202" id=271 pbc="T T T"
Si       0.00000000       0.00000000       0.00000000       0.00146726       0.01801013      -0.00575911
Si       3.49552090       2.01813919       1.42704070      -0.00146726      -0.01801013       0.00575911
2
Lattice="6.959972810838065 0.0 0.0 3.2436582011363955 6.098894535712712 0.0 3.4834115340199165 2.007348347800852 5.482101156717733" Properties=species:S:1:pos:R:3:dft_force:R:3 dft_energy=-8.445751155054392 volume=232.70499818793706 dft_virial="-0.0006149957686450538 0.01016711671095846 0.01224019834247948 0.010167116710958463 -0.00047365548546922826 0.006994092813741882 0.012240198342479483 0.006994092813741883 -0.0011569394822542108" id=280 pbc="T T T"
Si       0.00000000       0.00000000       0.00000000      -0.00489820      -0.01570859       0.02697832
Si       3.47275684       2.00499596       1.41774811       0.00489820       0.01570859      -0.02697832
2
Lattice="6.905692317634314 0.0 0.0 3.2886979335907265 6.2736280618262334 0.0 3.2810709989517366 2.206147536111483 5.973239086781846" Properties=species:S:1:pos:R:3:dft_force:R:3 dft_energy=-8.455694424346007 volume=258.7830876783101 dft_virial="-0.0005177022318896652 0.008760874084432883 0.009158222165906005 0.008760874084432883 -0.00016294441559345406 0.006080914237517742 0.009158222165906008 0.006080914237517744 -2.717081349002863e-05" id=245 pbc="T T T"
Si       0.00000000       0.00000000       0.00000000       0.03090750      -0.00091459      -0.00652716
Si       3.57710572       2.06524145       1.46034943      -0.03090750       0.00091459       0.00652716
2
Lattice="5.086108083542079 0.26549395383119195 -0.06337264589073006 -2.4839825731666787 4.250488463329343 0.15066716471774655 0.1625767289811918 0.2675384485254246 8.88717641860442" Properties=species:S:1:pos:R:3:dft_force:R:3 dft_energy=-8.424245188212144 volume=197.8752528033214 dft_virial="6.867123859989636e-05 3.489550950369922e-05 8.304969356879302e-06 3.489550950369923e-05 -7.366938605961444e-05 1.799794177474686e-05 8.304969356879302e-06 1.799794177474686e-05 2.6199206670121918e-05" id=2330 pbc="T T T"
Si       0.09386330      -0.02612758       0.12239433       0.00134602       0.00199405      -0.00740237
Si       0.28780655       2.88224668       4.35189464      -0.00134602      -0.00199404       0.00740236
4
Lattice="7.332061302071471 0.05197347775628499 -0.25786359878791676 0.06859320328262121 7.262364876677294 0.11603109267540816 0.012125163117003807 0.09022516279286985 7.397059206915686" Properties=species:S:1:pos:R:3:dft_force:R:3 dft_energy=-16.84462366719118 volume=393.79743597037503 dft_virial="-4.165431538064859e-05 1.465742918881621e-06 -9.894690507180861e-07 1.46574291888162e-06 2.423821985486073e-06 3.907138805141876e-06 -9.894690507180861e-07 3.9071388051418775e-06 -6.362960663086565e-05" id=2289 pbc="T T T"
Si       0.09386290      -0.02612601       0.12239357       0.00584169      -0.00220880      -0.00324515
Si       3.95215757       3.62009369      -0.04424767      -0.00725157       0.00300360      -0.00680015
Si       3.96277073       0.14502560       3.57562750      -0.00450529      -0.00189063       0.00514116
Si       0.10253172       3.57676841       3.57633311       0.00591519       0.00109585       0.00490416
4
Lattice="7.145614025115539 -0.29691751035892777 0.045511615964910906 0.1183176045944216 7.346740259970556 0.376889926268118 -0.19317986091192135 -0.12200143670176708 7.306012447895613" Properties=species:S:1:pos:R:3:dft_force:R:3 dft_energy=-16.842123911858014 volume=384.214298594646 dft_virial="-0.00011831075469283616 -0.00010642473079977982 8.4310695150015e-06 -0.00010642473079977985 -0.00020497788194268345 -3.1292963127491156e-05 8.431069515001495e-06 -3.129296312749114e-05 -0.00014773702100750094" id=2299 pbc="T T T"
Si       0.09386810      -0.02612658       0.12239265       0.01048485      -0.00335160      -0.00332392
Si       3.95215430       3.62009586      -0.04424616      -0.01114157       0.00249230      -0.00689711
Si       3.96277254       0.14502227       3.57562654      -0.01372367      -0.00816650       0.00621549
Si       0.10252970       3.57676918       3.57633364       0.01438040       0.00902580       0.00400553
2
Lattice="6.922106478752814 0.0 0.0 3.4920551413139544 5.963626049985875 0.0 3.436967735054989 2.5834786000461336 5.7491043403183575" Properties=species:S:1:pos:R:3:dft_force:R:3 dft_energy=-8.448662797231169 volume=237.3279398784161 dft_virial="-0.0006656339634757871 0.010948448285895298 0.011169881995752659 0.010948448285895295 -0.0007072474961545661 0.008610664218162636 0.011169881995752655 0.008610664218162634 -0.0004312411120409522" id=294 pbc="T T T"
Si       0.00000000       0.00000000       0.00000000       0.00548924       0.00245535      -0.01730708
Si       3.45170295       1.99284260       1.40915146      -0.00548924      -0.00245535       0.01730708
2
Lattice="7.013026871786932 0.0 0.0 3.2034145935863654 6.063239183193272 0.0 3.4733317348711625 1.6154890694200783 5.8766703023612195" Properties=species:S:1:pos:R:3:dft_force:R:3 dft_energy=-8.455216677341971 volume=249.8857725435775 dft_virial="-0.00044124846461429657 0.009105188293563134 0.010296222629954718 0.009105188293563134 -0.0004559553507629639 0.004674768210593057 0.010296222629954718 0.004674768210593057 -0.0001741465348142533" id=262 pbc="T T T"
Si       0.00000000       0.00000000       0.00000000       0.00439662       0.01204882      -0.00830418
Si       3.52022948       2.03240598       1.43712797      -0.00439662      -0.01204882       0.00830418
4
Lattice="7.365076650503025 0.04019649667774348 0.2906895021754761 -0.18656464784553387 7.264081938525913 -0.19454673761238567 0.14199303834679555 0.19437949685035627 7.4235219300101" Properties=species:S:1:pos:R:3:dft_force:R:3 dft_energy=-16.8443159187058 volume=397.1849898249633 dft_virial="-4.3384131086155206e-05 -2.3801616410591757e-05 3.891636312549439e-05 -2.3801616410591764e-05 3.2593663988441e-05 -2.6697054937758473e-05 3.8916363125494393e-05 -2.6697054937758473e-05 -3.963270502001657e-05" id=2304 pbc="T T T"
Si       0.09386117      -0.02612425       0.12239278       0.00838976      -0.00188574      -0.00522468
Si       3.95215239       3.62009730      -0.04424981      -0.00495211       0.00228798      -0.00464752
Si       3.96277110       0.14502223       3.57562346      -0.00977205      -0.00212033       0.00634108
Si       0.10252673       3.57677217       3.57633528       0.00633439       0.00171807       0.00353112
2
Lattice="5.084856328957128 0.08285919933169107 0.022618528828132013 -2.514543318540433 4.179916697896977 0.21856869044423224 0.157899656822743 -0.12406830575331526 8.385535995451997" Properties=species:S:1:pos:R:3:dft_force:R:3 dft_energy=-8.423254955805028 volume=180.10852335592412 dft_virial="-0.00024090396127802953 6.885139011075019e-05 3.531670128156903e-05 6.885139011075019e-05 -0.00026210154861198184 7.884704234915021e-05 3.531670128156902e-05 7.884704234915021e-05 -0.00031372189615599727" id=2336 pbc="T T T"
Si       0.09386610      -0.02612783       0.12239633      -0.00002963       0.00000477      -0.00729050
Si       0.28780950       2.88224511       4.35188829       0.00002963      -0.00000477       0.00729050
4
Lattice="7.29395068509009 -0.011824639971404571 0.0489678683550677 -0.22825992410724052 7.099405874998352 -0.1532702057626348 -0.09868592018708934 -0.12637144726222543 7.5161645249478966" Properties=species:S:1:pos:R:3:dft_force:R:3 dft_energy=-16.843978612931586 volume=389.08139351570253 dft_virial="-4.6874792506434784e-05 -6.418822635700079e-05 2.1791443043484646e-05 -6.418822635700079e-05 -5.648722692043561e-05 6.589516596951254e-06 2.1791443043484646e-05 6.589516596951254e-06 -0.00012459326323667195" id=2305 pbc="T T T"
Si       0.09386763      -0.02612410       0.12239563       0.00847028       0.00017194      -0.00693161
Si       3.95215286       3.62009301      -0.04424894      -0.00912598      -0.00429474      -0.00650745
Si       3.96277082       0.14502605       3.57562320      -0.00798697       0.00118247       0.00695449
Si       0.10253042       3.57676892       3.57632990       0.00864268       0.00294033       0.00648456
2
Lattice="7.078332027201751 0.0 0.0 3.6056730348309545 5.925950580239211 0.0 3.3779572573613 1.6350212786442104 5.469428653325992" Properties=species:S:1:pos:R:3:dft_force:R:3 dft_energy=-8.442232537932924 volume=229.4198108174823 dft_virial="-0.0005546782193370773 0.011822157042900436 0.011961412972505091 0.01182215704290044 -0.0007595842300895708 0.00585646809903297 0.011961412972505091 0.0058564680990329685 -0.0011504718614043768" id=310 pbc="T T T"
Si       0.00000000       0.00000000       0.00000000      -0.02144505      -0.00532668       0.01118080
Si       3.41417856       1.97117767       1.39383466       0.02144505       0.00532668      -0.01118080
2
Lattice="4.873748126074828 0.1845685490373529 -0.0868898906692116 -2.309576366515203 4.2456762379584605 0.22613827189533947 -0.05390969114357655 -0.14726964501554313 9.058097006521763" Properties=species:S:1:pos:R:3:dft_force:R:3 dft_energy=-8.422054397086342 volume=191.40523549432905 dft_virial="-0.00024397844342159662 9.641856903890426e-05 -8.583899375543127e-07 9.64185690389043e-05 -0.00017721810301878497 1.609993552920649e-05 -8.583899375543123e-07 1.609993552920649e-05 -5.7039820792199914e-05" id=2346 pbc="T T T"
Si       0.09386699      -0.02612939       0.12239629      -0.00078727      -0.00026450      -0.01137389
Si       0.28781115       2.88224683       4.35188773       0.00078727       0.00026450       0.01137390
2
Lattice="6.968024933855095 0.0 0.0 3.218687360125591 6.116287574963768 0.0 3.8326461499336313 1.9552674958061658 5.708102952592352" Properties=species:S:1:pos:R:3:dft_force:R:3 dft_energy=-8.453566247367048 volume=243.27046788628627 dft_virial="-0.0005142273916303322 0.009475979762934425 0.012281708852274411 0.009475979762934425 -0.0004183981004957973 0.006120003704719088 0.012281708852274411 0.006120003704719087 -0.0005165386506960298" id=267 pbc="T T T"
Si       0.00000000       0.00000000       0.00000000       0.00432162      -0.00241714       0.00416806
Si       3.52022999       2.03240784       1.43712908      -0.00432162       0.00241714      -0.00416806
4
Lattice="7.280273489906931 -0.08648528140866799 -0.12971945613996363 0.04078835889997627 7.2871704611385 -0.06793083537867864 0.1592654185847938 0.304366073749014 7.209722341386585" Properties=species:S:1:pos:R:3:dft_force:R:3 dft_energy=-16.843956547594686 volume=382.820307361164 dft_virial="-7.764219152206452e-05 -2.326891967390566e-05 -2.4876406745354633e-08 -2.326891967390566e-05 -0.00015132731743428115 -7.5787623293491785e-06 -2.4876406745354935e-08 -7.5787623293491785e-06 -0.00013125485040059264" id=2324 pbc="T T T"
Si       0.09386598      -0.02612439       0.12239577       0.00721256      -0.00282341      -0.00164487
Si       3.95215515       3.62009229      -0.04424665      -0.00664516       0.00403406      -0.00349576
Si       3.96276948       0.14502654       3.57562465      -0.00808119      -0.00444630       0.00242527
Si       0.10253165       3.57676760       3.57633377       0.00751380       0.00323565       0.00271537
2
Lattice="6.979283922105615 0.0 0.0 3.593253754739914 6.204227869899352 0.0 2.538676973083506 2.7223942571934985 5.526817746004753" Properties=species:S:1:pos:R:3:dft_force:R:3 dft_energy=-8.444612806814744 volume=239.31711005664542 dft_virial="-0.00044574214821020626 0.010563185384654448 0.008303929700557922 0.01056318538465445 -0.00023385332148113242 0.00900212579409414 0.008303929700557924 0.00900212579409414 -0.000700187679471401" id=270 pbc="T T T"
Si       0.00000000       0.00000000       0.00000000       0.01326924      -0.01202272       0.00268918
Si       3.49552560       2.01813982       1.42704093      -0.01326924       0.01202272      -0.00268918
2
Lattice="4.9959459431154665 -0.042189704204953764 0.044668306784535414 -2.661201599360137 4.541997161779844 0.05637221215383764 -0.17191832551662184 0.024426977832137632 8.488915447312081" Properties=species:S:1:pos:R:3:dft_force:R:3 dft_energy=-8.425830279381652 volume=191.6992481109526 dft_virial="-1.2590905869111781e-05 -7.535652457599086e-06 -2.1379721328541184e-08 -7.53565245759909e-06 -4.290263657148773e-05 1.1063209599523951e-05 -2.137972132854024e-08 1.1063209599523951e-05 -0.00010422439916483358" id=2344 pbc="T T T"
Si       0.09386659      -0.02612890       0.12239180      -0.00103853       0.00091102      -0.00267853
Si       0.28780782       2.88224415       4.35189387       0.00103853      -0.00091102       0.00267853
4
Lattice="7.15330951901833 0.24299117072819326 -0.5223240236070283 0.12263224617942842 7.2622660440009765 -0.14850692429838058 -0.007589744828856974 0.024810630029959153 7.247832429244653" Properties=species:S:1:pos:R:3:dft_force:R:3 dft_energy=-16.839027323493095 volume=376.29963994722414 dft_virial="-0.0002252414244507917 3.982524397029552e-05 -9.26303242282934e-05 3.9825243970295496e-05 -0.000169672678150571 5.137775963114997e-06 -9.263032422829336e-05 5.137775963114999e-06 -0.00023505444241848263" id=2316 pbc="T T T"
Si       0.09386483      -0.02612461       0.12239372       0.01499012      -0.00554652       0.00197384
Si       3.95215587       3.62009431      -0.04424680      -0.01751430       0.00463795      -0.00863762
Si       3.96277033       0.14502635       3.57562395      -0.01324024       0.00010431      -0.00190058
Si       0.10253176       3.57677328       3.57633239       0.01576442       0.00080427       0.00856436
2
Lattice="6.887031272153634 0.0 0.0 3.354940393163358 5.901952948182588 0.0 3.7937725938239546 1.9022644574626622 5.575476303987742" Properties=species:S:1:pos:R:3:dft_force:R:3 dft_energy=-8.442390766217686 volume=226.6260202510908 dft_virial="-0.0007272256200293144 0.011401632364540892 0.013728895237010742 0.011401632364540892 -0.0009575805996836697 0.006853379184265819 0.013728895237010742 0.0068533791842658185 -0.0009649753179626065" id=275 pbc="T T T"
Si       0.00000000       0.00000000       0.00000000      -0.00721096       0.01236141       0.01559820
Si       3.49552409       2.01814038       1.42704316       0.00721096      -0.01236141      -0.01559820
4
Lattice="7.155695184867103 -0.11369726201423408 0.057915589274342 0.25035843810039804 7.435324535774892 0.18404397996241806 -0.18265990675421964 -0.13854527082693835 7.204647992104957" Properties=species:S:1:pos:R:3:dft_force:R:3 dft_energy=-16.842829381679728 volume=383.79070140236206 dft_virial="-9.706299823203664e-05 -3.864217414086808e-05 2.7970040702958268e-05 -3.8642174140868094e-05 -0.00018333804078664317 -3.63562938741382e-05 2.7970040702958282e-05 -3.63562938741382e-05 -0.00012036823321902318" id=2279 pbc="T T T"
Si       0.09386570      -0.02612575       0.12239554       0.01166265      -0.00615928      -0.00162040
Si       3.95215746       3.62009522      -0.04424285      -0.01106547       0.00563961      -0.00380312
Si       3.96276867       0.14502446       3.57562747      -0.01168000      -0.00689369       0.00418872
Si       0.10253119       3.57676746       3.57633041       0.01108281       0.00741336       0.00123480
2
Lattice="7.006246534451775 0.0 0.0 3.335788018890276 5.996405239343633 0.0 3.3680286363025163 2.1625043112632505 5.914782298842672" Properties=species:S:1:pos:R:3:dft_force:R:3 dft_energy=-8.454926631124033 volume=248.4935694976954 dft_virial="-0.00043443580639617737 0.009764234338052109 0.009998046315137971 0.009764234338052112 -0.0006248364412609766 0.0065185645333801084 0.009998046315137975 0.006518564533380108 -0.0001481768004280144" id=254 pbc="T T T"
Si       0.00000000       0.00000000       0.00000000       0.00603050       0.01751145      -0.00696594
Si       3.54722919       2.04799456       1.44815165      -0.00603050      -0.01751145       0.00696594
2
Lattice="6.940157142695238 0.0 0.0 3.2950077291208517 5.929490037270635 0.0 3.273561227332474 2.4252499419050935 5.596183922861391" Properties=species:S:1:pos:R:3:dft_force:R:3 dft_energy=-8.4451377265583 volume=230.29188110247196 dft_virial="-0.0006632512279694532 0.010757751305605452 0.01136195598050634 0.010757751305605452 -0.0008213592781101032 0.008610131007677185 0.011361955980506341 0.008610131007677185 -0.0008236663132201442" id=293 pbc="T T T"
Si       0.00000000       0.00000000       0.00000000      -0.00194604       0.00235772       0.00261388
Si       3.45169995       1.99283640       1.40914710       0.00194604      -0.00235772      -0.00261388
2
Lattice="7.221652635945619 0.0 0.0 3.8225644610587524 6.097671882910079 0.0 4.097827637550116 2.5967728233328757 5.71881769971898" Properties=species:S:1:pos:R:3:dft_force:R:3 dft_energy=-8.453457423856388 volume=251.82967134471772 dft_virial="-0.0001098478168954119 0.010876464955024782 0.012426377343421748 0.010876464955024782 -0.00034546206821724185 0.008040348868039709 0.012426377343421748 0.008040348868039709 -0.00043557140865298216" id=240 pbc="T T T"
Si       0.00000000       0.00000000       0.00000000      -0.00926789      -0.00319066      -0.00401365
Si       3.57710399       2.06524198       1.46034584       0.00926789       0.00319066       0.00401365
4
Lattice="7.253490439337132 -0.12894884472360252 -0.1437572110677012 -0.009634995413539444 7.305474858607679 -0.10659381930628832 0.09442213113209623 -0.13786931579215972 7.17836825119119" Properties=species:S:1:pos:R:3:dft_force:R:3 dft_energy=-16.843249373364777 volume=380.3678665921157 dft_virial="-0.0001157014906686104 -3.219506649428264e-05 6.751531539853537e-06 -3.219506649428264e-05 -0.00019452006974235065 1.4858966098326081e-05 6.7515315398535354e-06 1.4858966098326075e-05 -0.00012388776456707457" id=2322 pbc="T T T"
Si       0.09386525      -0.02612518       0.12239374       0.00759253      -0.00409739      -0.00200314
Si       3.95215356       3.62009790      -0.04424457      -0.00843930       0.00338168      -0.00112582
Si       3.96276748       0.14502592       3.57562269      -0.00917254      -0.00484587       0.00113150
Si       0.10252707       3.57677332       3.57633026       0.01001931       0.00556158       0.00199747
2
Lattice="7.064756234722439 0.0 0.0 3.407841386296132 6.054287550540921 0.0 3.49341763384981 1.8873148340907475 5.694523380660792" Properties=species:S:1:pos:R:3:dft_force:R:3 dft_energy=-8.45481292975209 volume=243.56652827877522 dft_virial="-0.00038074508539879994 0.01014103450653264 0.011083032285001716 0.010141034506532634 -0.0005097778171121178 0.005984390205915418 0.011083032285001715 0.005984390205915421 -0.0005674098352462112" id=250 pbc="T T T"
Si       0.00000000       0.00000000       0.00000000      -0.00545030       0.00751700       0.01208180
Si       3.54723170       2.04799779       1.44815146       0.00545030      -0.00751700      -0.01208180
2
Lattice="6.873143674863759 0.0 0.0 3.3094811415093606 6.0845250582610575 0.0 3.482942881941009 2.201351411207183 5.61499614643204" Properties=species:S:1:pos:R:3:dft_force:R:3 dft_energy=-8.449344819411055 volume=234.81809961320965 dft_virial="-0.0007400457079608239 0.010343979975174531 0.011832285468561436 0.010343979975174533 -0.0005248424828156971 0.007437458425634002 0.01183228546856144 0.007437458425634002 -0.0007670386028343969" id=279 pbc="T T T"
Si       0.00000000       0.00000000       0.00000000       0.00925732      -0.00949555       0.00653873
Si       3.47275522       2.00499541       1.41774722      -0.00925732       0.00949555      -0.00653873
2
Lattice="6.9856825347635985 0.0 0.0 3.3099308963270215 5.947784475883137 0.0 3.6095299658513156 2.0765387801279 5.80970974686123" Properties=species:S:1:pos:R:3:dft_force:R:3 dft_energy=-8.452663371195946 volume=241.38957149223742 dft_virial="-0.0005081979247660191 0.01016247436509768 0.011427486074047779 0.010162474365097677 -0.0007590175056482779 0.006628216586094802 0.011427486074047775 0.006628216586094803 -0.0003483383084590251" id=266 pbc="T T T"
Si       0.00000000       0.00000000       0.00000000      -0.00071660       0.01663112      -0.00434994
Si       3.52022964       2.03240211       1.43712466       0.00071660      -0.01663112       0.00434994
4
Lattice="7.0957474219128605 0.020299608106081238 0.054461094329481104 0.2659897801717713 7.236163313733305 -0.23072272857642032 0.3649944593615625 0.05754637458411262 7.2440514652145005" Properties=species:S:1:pos:R:3:dft_force:R:3 dft_energy=-16.8392416840683 volume=371.8633552408757 dft_virial="-0.0002094152563694145 1.909969412183678e-05 5.298266031262461e-05 1.9099694121836782e-05 -0.000249231692059437 3.9726904382472826e-05 5.298266031262461e-05 3.972690438247282e-05 -0.00029657655071228676" id=2303 pbc="T T T"
Si       0.09386593      -0.02612425       0.12239835       0.01598961      -0.00399148      -0.00634631
Si       3.95215303       3.62009182      -0.04424457      -0.01535255       0.00255268       0.00263920
Si       3.96276848       0.14502463       3.57562299      -0.01585211      -0.00207249       0.00445258
Si       0.10252581       3.57676741       3.57633483       0.01521505       0.00351130      -0.00074545
4
Lattice="7.41808728554555 -0.1067180876962437 -0.279513869744313 0.059234391342195825 7.157940462962077 0.1781343717337046 0.005444074197911889 0.04957477279725252 7.24121867126738" Properties=species:S:1:pos:R:3:dft_force:R:3 dft_energy=-16.845506262532886 volume=384.4861072610435 dft_virial="-0.00016044599685620555 -4.3117999805287884e-05 1.3187986343218069e-05 -4.3117999805287884e-05 -2.0119724392315255e-05 4.9650336000866684e-05 1.3187986343218074e-05 4.965033600086671e-05 -8.116390192467685e-05" id=2302 pbc="T T T"
Si       0.09386273      -0.02612518       0.12239726       0.00531618      -0.00053445      -0.00228627
Si       3.95215300       3.62009650      -0.04424302      -0.00608166       0.00129602      -0.00408368
Si       3.96277158       0.14502301       3.57562153      -0.00409883      -0.00036005       0.00268199
Si       0.10252798       3.57677164       3.57633659       0.00486429      -0.00040152       0.00368794
2
Lattice="7.313449861901564 0.0 0.0 4.023712578942294 6.296775317126775 0.0 2.9172665946171574 2.3284789567891324 6.058989189138989" Properties=species:S:1:pos:R:3:dft_force:R:3 dft_energy=-8.456072349600257 volume=279.0234234720421 dft_virial="1.9333110257292428e-05 0.009568413539919636 0.00693931819003927 0.009568413539919638 -2.6982956632039182e-05 0.005740038379786314 0.0069393181900392715 0.005740038379786313 0.00013876533537926066" id=246 pbc="T T T"
Si       0.00000000       0.00000000       0.00000000       0.00418274      -0.00532702      -0.01707184
Si       3.57710867       2.06524351       1.46034970      -0.00418274       0.00532702       0.01707183
2
Lattice="7.125115976869111 0.0 0.0 3.306313960524488 6.446418949483641 0.0 3.826810675660787 2.0317428223436464 5.986812989535033" Properties=species:S:1:pos:R:3:dft_force:R:3 dft_energy=-8.459531333174809 volume=274.9831969609617 dft_virial="-0.00021426601023368178 0.007778139112502075 0.009875201630762349 0.007778139112502077 0.00010219734186688755 0.005081833842887082 0.00987520163076235 0.005081833842887081 4.112226806560544e-05" id=241 pbc="T T T"
Si       0.00000000       0.00000000       0.00000000       0.01310983      -0.01042938      -0.01122631
Si       3.57710644       2.06524192       1.46034533      -0.01310983       0.01042938       0.01122632
2
Lattice="7.547159850638532 0.0 0.0 3.5897898867534748 6.26821777593143 0.0 3.657298462829606 2.2534700577243614 5.96756234950347" Properties=species:S:1:pos:R:3:dft_force:R:3 dft_energy=-8.460647557392877 volume=282.3089134345898 dft_virial="0.00019241741208268082 0.008361891949987718 0.009001872592182108 0.008361891949987718 -4.414349756524049e-05 0.005656781539495663 0.009001872592182105 0.005656781539495661 1.4344276491017073e-05" id=229 pbc="T T T"
Si       0.00000000       0.00000000       0.00000000      -0.00798603       0.00023694      -0.00348566
Si       3.64867748       2.10656383       1.48956324       0.00798601      -0.00023694       0.00348566
2
Lattice="5.038577219623961 -0.07331432495703503 -0.09488449042300841 -2.5292581245441013 4.4557924480089 0.05894070900516774 -0.004693815131912965 -0.06517070140105025 8.845107997022145" Properties=species:S:1:pos:R:3:dft_force:R:3 dft_energy=-8.425297919152166 volume=196.9418250882894 dft_virial="1.2504803971591894e-05 -2.177553902035249e-05 1.7094704981038586e-05 -2.1775539020352496e-05 1.6586358744713186e-05 7.587426325057936e-06 1.7094704981038586e-05 7.587426325057936e-06 3.620188967211415e-05" id=2367 pbc="T T T"
Si       0.09386665      -0.02612698       0.12239960      -0.00132051       0.00047098      -0.00453243
Si       0.28781149       2.88224634       4.35188933       0.00132051      -0.00047098       0.00453243
2
Lattice="6.98594898614717 0.0 0.0 3.407896188353746 6.244171010995567 0.0 3.715696669258916 2.5090933106024895 5.6310191342427425" Properties=species:S:1:pos:R:3:dft_force:R:3 dft_energy=-8.452446708479016 volume=245.63327673218515 dft_virial="-0.0005191837076680525 0.009710705159945772 0.01180093708739573 0.009710705159945772 -0.00018485065933420122 0.007979427610998575 0.01180093708739573 0.007979427610998575 -0.0006019488713139102" id=282 pbc="T T T"
Si       0.00000000       0.00000000       0.00000000       0.00816286      -0.02140252      -0.00554140
Si       3.47275728       2.00499874       1.41774422      -0.00816286       0.02140252       0.00554140
2
Lattice="5.079805034334219 -0.032888132068843286 -0.006857702722699443 -2.5984858600648493 4.40751478322359 -0.07918714021810201 -0.21213863274353562 0.033625956736942166 8.77481218829576" Properties=species:S:1:pos:R:3:dft_force:R:3 dft_energy=-8.425959271600567 volume=195.71931228601892 dft_virial="2.042138966759818e-05 -2.5459253801301144e-05 6.584653709199757e-07 -2.545925380130113e-05 1.7040091560716175e-05 3.3519724930611344e-05 6.58465370919976e-07 3.351972493061136e-05 1.565173483188993e-05" id=2357 pbc="T T T"
Si       0.09386154      -0.02612567       0.12239845      -0.00193865       0.00081574      -0.00251515
Si       0.28781145       2.88224466       4.35189155       0.00193865      -0.00081574       0.00251515
4
Lattice="7.28440363753039 -0.07904079982701098 0.2233815016302129 -0.20161023151005683 7.296091499124896 0.24299757689975576 -0.20273915389690828 -0.18354730324508264 7.027358875969536" Properties=species:S:1:pos:R:3:dft_force:R:3 dft_energy=-16.84337904491169 volume=374.04328740306016 dft_virial="-0.00025571535363423843 -4.136909499712387e-06 1.9709161907421298e-05 -4.136909499712388e-06 -0.0002248073067468036 -2.5338221607920156e-05 1.970916190742129e-05 -2.5338221607920142e-05 -0.0001710686380435652" id=2294 pbc="T T T"
Si       0.09386192      -0.02612733       0.12239618       0.00895027      -0.00361444      -0.00035575
Si       3.95215748       3.62009403      -0.04424652      -0.00893898       0.00427411       0.00123651
Si       3.96276753       0.14502654       3.57562654      -0.01073805      -0.00532121       0.00049591
Si       0.10252747       3.57677039       3.57633005       0.01072675       0.00466152      -0.00137668
2
Lattice="7.270107103507147 0.0 0.0 4.019848089017434 6.33523124376291 0.0 3.9052966707948684 2.0104569472758613 6.107506017662631" Properties=species:S:1:pos:R:3:dft_force:R:3 dft_energy=-8.459277852834342 volume=281.29834970547853 dft_virial="-3.121164205074698e-05 0.009502948607782672 0.009522747074039193 0.009502948607782672 1.2469177845031333e-05 0.00483584867640496 0.009522747074039193 0.00483584867640496 0.00018545395159040934" id=238 pbc="T T T"
Si       0.00000000       0.00000000       0.00000000       0.00069986      -0.00665771      -0.02148297
Si       3.61064498       2.08460791       1.47404046      -0.00069986       0.00665771       0.02148297
2
Lattice="6.700777975584393 0.0 0.0 3.2729130512717273 5.86392032019837 0.0 3.4325004224963735 2.3231215832258183 5.594137349468421" Properties=species:S:1:pos:R:3:dft_force:R:3 dft_energy=-8.435736399126764 volume=219.80947742039896 dft_virial="-0.0012020108429534235 0.011685307621816701 0.012846941590555449 0.011685307621816701 -0.0011225250590309842 0.008735088863532338 0.012846941590555449 0.008735088863532338 -0.0009123963872119844" id=322 pbc="T T T"
Si       0.00000000       0.00000000       0.00000000       0.01255398       0.00360989      -0.00804132
Si       3.39732672       1.96144586       1.38695447      -0.01255398      -0.00360988       0.00804132
4
Lattice="7.195905382059249 -0.10952451996392544 0.2784081342970107 0.11917264897403101 7.475083636443829 0.06375571227345296 -0.2832986699184973 -0.06479113101165791 7.456657257153306" Properties=species:S:1:pos:R:3:dft_force:R:3 dft_energy=-16.84247625102206 volume=401.81001321566816 dft_virial="-3.6017947055405795e-05 -3.1022148984723994e-05 6.765203773391547e-05 -3.102214898472398e-05 -1.0147455862005457e-05 -2.3345832887944307e-05 6.765203773391547e-05 -2.334583288794432e-05 -1.528587354826815e-05" id=2320 pbc="T T T"
Si       0.09386784      -0.02612654       0.12239675       0.01001231      -0.00620810      -0.00782459
Si       3.95215542       3.62009529      -0.04424280      -0.00818937       0.00397085      -0.00555127
Si       3.96277320       0.14502115       3.57562399      -0.01124656      -0.00535179       0.00913305
Si       0.10253136       3.57677083       3.57633515       0.00942361       0.00758902       0.00424282
2
Lattice="6.8346858585015005 0.0 0.0 3.64318976758315 5.8938252361205725 0.0 3.2628767158238396 1.9250375469905272 5.595133235136099" Properties=species:S:1:pos:R:3:dft_force:R:3 dft_energy=-8.44225659316284 volume=225.38564118217718 dft_virial="-0.0009314842386241394 0.012457013137906415 0.011648060132465473 0.012457013137906418 -0.0009627325545985357 0.0069013896037223715 0.011648060132465474 0.006901389603722372 -0.000856316700581374" id=326 pbc="T T T"
Si       0.00000000       0.00000000       0.00000000      -0.00094237      -0.00006458      -0.00695193
Si       3.39732971       1.96144955       1.38695519       0.00094237       0.00006458       0.00695193
2
Lattice="6.848598022230995 0.0 0.0 4.051440530368928 6.440600482745918 0.0 3.734752667499642 2.2406444865165263 5.77138232160157" Properties=species:S:1:pos:R:3:dft_force:R:3 dft_energy=-8.451160848939898 volume=254.5703860504788 dft_virial="-0.0005936483708789223 0.01108335426268735 0.011211972746247295 0.01108335426268735 -2.1110376761281247e-05 0.006508673269408511 0.011211972746247299 0.006508673269408513 -0.0003765634777283787" id=236 pbc="T T T"
Si       0.00000000       0.00000000       0.00000000       0.02609495      -0.01614922       0.00636862
Si       3.61065014       2.08460853       1.47403989      -0.02609495       0.01614922      -0.00636862
2
Lattice="6.770915160699879 0.0 0.0 3.364715946406047 5.895992751985519 0.0 3.8763233898521063 1.7197263624544359 5.4939024963660215" Properties=species:S:1:pos:R:3:dft_force:R:3 dft_energy=-8.434800529455504 volume=219.3235468460262 dft_virial="-0.0010406931804543785 0.011958547517113432 0.01489367646951554 0.011958547517113432 -0.0010119767072495722 0.006460178350553038 0.014893676469515537 0.006460178350553035 -0.001171924492958063" id=316 pbc="T T T"
Si       0.00000000       0.00000000       0.00000000      -0.00027443       0.00050695       0.00689680
Si       3.41418497       1.97117922       1.39383602       0.00027443      -0.00050695      -0.00689680
2
Lattice="5.090616270876771 0.16605758560549122 -0.05215714023833737 -2.4968159867379307 4.2536247850866005 0.19302108612293029 0.13607628695333104 -0.13897452211614708 8.62248716684888" Properties=species:S:1:pos:R:3:dft_force:R:3 dft_energy=-8.424735963998558 volume=190.4356659770928 dft_virial="-3.740358722390334e-05 6.0570451990728514e-05 1.604142690012929e-05 6.05704519907285e-05 -0.00011472614357210945 3.577741089944024e-05 1.6041426900129285e-05 3.5777410899440246e-05 -7.90758487342043e-05" id=2368 pbc="T T T"
Si       0.09386600      -0.02612715       0.12239888      -0.00026790      -0.00000527      -0.00761027
Si       0.28780937       2.88224689       4.35189351       0.00026790       0.00000527       0.00761027
2
Lattice="5.180695641299125 -0.15231219020649453 0.03786546281123385 -2.665659198726472 4.379135235331924 -0.07724920718003704 0.010911278643589196 -0.044776720372305186 8.560993418952082" Properties=species:S:1:pos:R:3:dft_force:R:3 dft_energy=-8.425412347172617 volume=190.7320231366048 dft_virial="-4.5059884550738195e-05 -4.042040622154573e-05 -2.8880207013285464e-06 -4.042040622154573e-05 -6.562378494405555e-05 -3.159550134760104e-05 -2.8880207013285456e-06 -3.159550134760104e-05 -6.061832408126165e-05" id=2365 pbc="T T T"
Si       0.09386500      -0.02612820       0.12239378      -0.00111328       0.00015306      -0.00030739
Si       0.28781047       2.88224451       4.35189436       0.00111328      -0.00015306       0.00030739
2
Lattice="7.30842319041006 0.0 0.0 3.596955728218056 6.1244587507266495 0.0 3.257761227204478 2.0170048482976894 6.154206819380509" Properties=species:S:1:pos:R:3:dft_force:R:3 dft_energy=-8.458168551154818 volume=275.4631364386248 dft_virial="1.1582471422286093e-05 0.008934769405045926 0.007956293923926546 0.008934769405045926 -0.0002910982864877171 0.005046834791039677 0.007956293923926546 0.005046834791039677 0.00019978120116186966" id=225 pbc="T T T"
Si       0.00000000       0.00000000       0.00000000      -0.00219384       0.02264074      -0.00613562
Si       3.64867697       2.10656570       1.48956422       0.00219384      -0.02264074       0.00613562
2
Lattice="6.834355156429691 0.0 0.0 3.1597127872282695 6.00296069926996 0.0 3.409710325433387 1.9430504164104603 5.627063937463901" Properties=species:S:1:pos:R:3:dft_force:R:3 dft_energy=-8.446562727924436 volume=230.85798127764008 dft_virial="-0.0008163849404948903 0.010230091576317457 0.0118341689507022 0.010230091576317457 -0.0007105417179169196 0.006656589500127399 0.011834168950702204 0.006656589500127401 -0.0007735882205085556" id=284 pbc="T T T"
Si       0.00000000       0.00000000       0.00000000       0.00911842      -0.00007297       0.00742641
Si       3.47275745       2.00499492       1.41774439      -0.00911842       0.00007297      -0.00742641
2
Lattice="6.908776350669703 0.0 0.0 3.870680667643974 5.939201339825087 0.0 3.261243992452163 1.804448453799783 5.615621645779291" Properties=species:S:1:pos:R:3:dft_force:R:3 dft_energy=-8.445218669790394 volume=230.42363400484956 dft_virial="-0.0007533591216713376 0.012752555896137085 0.011185076307725444 0.012752555896137089 -0.0007904868384877009 0.00619113470938531 0.011185076307725446 0.006191134709385309 -0.0007513290731320682" id=308 pbc="T T T"
Si       0.00000000       0.00000000       0.00000000      -0.00337333      -0.00392908      -0.00728823
Si       3.41417981       1.97117910       1.39383098       0.00337333       0.00392908       0.00728823
