2
Lattice="5.6371540923118175 -0.0038109350864878057 0.006504550704529378 0.10567244553970453 5.815560830271864 0.19958414274827807 0.022363170136911335 -0.009845983335353912 5.982670426410935" Properties=species:S:1:pos:R:3:dft_force:R:3 dft_energy=-8.421203035037939 volume=196.14377325399724 dft_virial="-3.0558652688813005e-05 1.5839941158769373e-05 5.5834702910259926e-05 1.583994115876938e-05 -0.00015584235595598187 2.6877848168111934e-05 5.5834702910259953e-05 2.6877848168111934e-05 -4.770112409017509e-05" id=2242 pbc="T T T"
Si       0.09386604      -0.02612798       0.12239798       0.02957984       0.00793521      -0.06904607
Si       3.20509165       2.87303045       2.87303548      -0.02957993      -0.00793517       0.06904611
2
Lattice="6.032468961678604 0.15218809189189034 -0.014853568592999739 0.12315711761054321 5.832244674205609 -0.08682388253567844 0.0915242361199826 -0.10490865603465328 5.847247568956977" Properties=species:S:1:pos:R:3:dft_force:R:3 dft_energy=-8.422727230605695 volume=205.5651150925606 dft_virial="7.682896839561338e-05 2.3283631759352897e-05 -4.981997487302907e-07 2.3283631759352897e-05 0.00017449035124374488 2.085446761570458e-05 -4.981997487302907e-07 2.0854467615704575e-05 0.00010789648770166567" id=2244 pbc="T T T"
Si       0.09386644      -0.02612764       0.12239414       0.00249882      -0.00550266      -0.01307365
Si       3.20508938       2.87303342       2.87303825      -0.00249874       0.00550273       0.01307365
2
Lattice="5.769985813995473 -0.21128887959707512 0.13743819367408758 0.05166567916510595 5.609942773110395 -0.13562736361516492 0.10624714904872572 -0.13688703615257922 5.838997704998265" Properties=species:S:1:pos:R:3:dft_force:R:3 dft_energy=-8.420583561205012 volume=188.8809825701608 dft_virial="-0.00022444701953422655 -5.942207868271382e-05 9.713659658328309e-05 -5.9422078682713836e-05 -0.0001251195878832384 5.6717848166686525e-06 9.713659658328311e-05 5.671784816668652e-06 -0.000267131354333243" id=2276 pbc="T T T"
Si       0.09386444      -0.02612544       0.12239352       0.04240044       0.03907064      -0.03754748
Si       3.20509091       2.87303081       2.87303498      -0.04240043      -0.03907083       0.03754750
2
Lattice="5.7523184809974275 0.06233743502239882 0.005302117971430001 0.21300182184274216 5.857825046377911 -0.18439346591190633 0.1838892869818562 0.16960359998656774 5.873860430791991" Properties=species:S:1:pos:R:3:dft_force:R:3 dft_energy=-8.422723458191973 volume=198.02031341805107 dft_virial="6.791626880009361e-05 1.772965720090171e-05 -7.9796156675514e-06 1.7729657200901717e-05 -1.4578194881023374e-05 7.272535605684659e-06 -7.9796156675514e-06 7.272535605684657e-06 -4.332992405125954e-05" id=2232 pbc="T T T"
Si       0.09386561      -0.02612690       0.12239595       0.01364675      -0.02422418      -0.01908034
Si       3.20508938       2.87303073       2.87303769      -0.01364681       0.02422416       0.01908033
2
Lattice="5.7307058722826945 -0.13965877304861282 -0.07786423744455774 0.06328917668780534 5.77012300811212 0.06724766159010394 0.00899133579823066 -0.08442702950824808 5.626438759370091" Properties=species:S:1:pos:R:3:dft_force:R:3 dft_energy=-8.421000304740831 volume=186.13540189898825 dft_virial="-0.0002654174630931243 -3.04730692003993e-05 -1.7944162775282094e-05 -3.04730692003993e-05 -0.00024278255815364416 2.304965068106661e-06 -1.79441627752821e-05 2.3049650681066616e-06 -0.00017143613927563377" id=2252 pbc="T T T"
Si       0.09386606      -0.02612658       0.12239584       0.04769360       0.03445449      -0.00797552
Si       3.20509123       2.87302911       2.87303438      -0.04769366      -0.03445449       0.00797545
2
Lattice="5.8664147964773985 0.007975286752803123 0.10040717722770472 0.0985043553010353 5.784526784092936 -0.03498850596458109 -0.09748972355020122 0.16773662616448248 6.010822696941592" Properties=species:S:1:pos:R:3:dft_force:R:3 dft_energy=-8.421784591706478 volume=204.0618792395246 dft_virial="7.540978862593486e-05 -8.800222474287508e-06 3.837357636228658e-05 -8.800222474287508e-06 0.00012035765691148051 -4.157095687397766e-06 3.837357636228658e-05 -4.157095687397766e-06 4.098184312109623e-05" id=2233 pbc="T T T"
Si       0.09386665      -0.02612715       0.12239295       0.02336443      -0.00543473      -0.04128156
Si       3.20508802       2.87302930       2.87303459      -0.02336444       0.00543480       0.04128160
2
Lattice="5.685594745975376 -0.30631961592486834 0.09172798639073974 0.12148028803111778 5.8359643733148 0.007222684426409664 0.021447371062395193 0.057121091719765586 5.898434164754967" Properties=species:S:1:pos:R:3:dft_force:R:3 dft_energy=-8.421488646854348 volume=195.9217750219133 dft_virial="-2.0222389399047856e-06 -6.561430260192896e-05 8.170204236018797e-05 -6.561430260192896e-05 -0.00011319613612926322 4.831868321133553e-05 8.170204236018797e-05 4.831868321133553e-05 -7.755221827808234e-05" id=2243 pbc="T T T"
Si       0.09386289      -0.02612824       0.12239329       0.03209118       0.03129154      -0.05196874
Si       3.20509001       2.87303121       2.87303527      -0.03209123      -0.03129155       0.05196873
2
Lattice="5.794279925183788 -0.04426808168860092 0.11754419638339601 -0.07650085673742399 5.844771933247411 -0.09861615149856816 0.0490542288389631 0.04799318541450822 5.78069570452596" Properties=species:S:1:pos:R:3:dft_force:R:3 dft_energy=-8.421979245844161 volume=195.74438371848157 dft_virial="-5.311510110254266e-06 -6.907593414555753e-06 9.888217497453866e-06 -6.907593414555753e-06 -0.00012439311824980726 -1.1765529137338914e-05 9.888217497453866e-06 -1.1765529137338914e-05 2.242708862259929e-06" id=2248 pbc="T T T"
Si       0.09386457      -0.02612820       0.12239304       0.03596760      -0.00073521      -0.02814677
Si       3.20508927       2.87303385       2.87303644      -0.03596769       0.00073526       0.02814680
2
Lattice="5.903721221609184 0.032222797294885044 -0.0566521561819397 -0.11124061805222059 5.727321297204445 0.06150463271927625 -0.17948280470719255 0.02427124550220722 5.905469577322426" Properties=species:S:1:pos:R:3:dft_force:R:3 dft_energy=-8.421915582954481 volume=199.63265537574344 dft_virial="5.369262535287001e-07 5.866292533955961e-06 7.921099359302403e-06 5.866292533955958e-06 3.539780328402183e-05 1.9023143966722889e-06 7.921099359302403e-06 1.9023143966722897e-06 -1.991641854959212e-05" id=2241 pbc="T T T"
Si       0.09386309      -0.02612667       0.12239578       0.04021885       0.00492383      -0.02228973
Si       3.20509008       2.87303132       2.87303459      -0.04021889      -0.00492379       0.02228974
2
Lattice="5.7243899162454035 -0.07451392310094747 -0.043263370999921134 -0.251026664155327 5.782880076747937 0.10486362386110346 -0.08873405549697265 -0.016453278449279192 5.605899080457137" Properties=species:S:1:pos:R:3:dft_force:R:3 dft_energy=-8.41824198642232 volume=185.45799111199676 dft_virial="-0.0001986804406594995 -7.637563391995483e-05 -2.5685398223800404e-05 -7.637563391995483e-05 -0.00041264233531543667 2.1994423904394378e-05 -2.5685398223800404e-05 2.1994423904394378e-05 -0.00032394588486719836" id=2249 pbc="T T T"
Si       0.09386498      -0.02612703       0.12239304       0.08820775       0.04509469      -0.01302706
Si       3.20508940       2.87303385       2.87303844      -0.08820776      -0.04509469       0.01302729
2
Lattice="5.872222000447419 -0.0022040442709347742 0.020635695897345933 -0.10169169966365785 5.811134184619451 -0.1748403901258694 0.06124084584953974 0.06072918360403606 5.893407247599067" Properties=species:S:1:pos:R:3:dft_force:R:3 dft_energy=-8.42234891059924 volume=201.16180237165696 dft_virial="7.922592433243122e-05 4.176148765967041e-06 1.585683900630653e-05 4.176148765967041e-06 7.659555613138696e-05 -9.288346807015479e-07 1.5856839006306527e-05 -9.288346807015476e-07 6.088690590950722e-06" id=2266 pbc="T T T"
Si       0.09386185      -0.02612652       0.12239732       0.02302530      -0.00301361      -0.01820592
Si       3.20509169       2.87303054       2.87303582      -0.02302534       0.00301367       0.01820592
2
Lattice="5.887201746053759 0.020420286016399843 -0.23731426337446623 -0.050292623060214106 5.997743770152229 0.063058630100601 0.0579595065094783 -0.10624251921972037 5.846000009564021" Properties=species:S:1:pos:R:3:dft_force:R:3 dft_energy=-8.422461949737636 volume=206.54858548355548 dft_virial="0.0001502776778048978 2.6554588176826658e-05 3.383542923760417e-05 2.6554588176826664e-05 8.330108551286845e-05 1.1460318401303006e-06 3.3835429237604184e-05 1.1460318401303012e-06 0.00018818818937153022" id=2261 pbc="T T T"
Si       0.09386685      -0.02612902       0.12239391       0.01389987      -0.00684502      -0.00397060
Si       3.20509122       2.87303444       2.87303703      -0.01389989       0.00684499       0.00397055
2
Lattice="5.573986935239879 0.12984066317359716 -0.09511212683198082 0.06307102670397856 6.1135821863519695 0.1700481013656022 0.1022622268779436 0.044838098676833034 5.702009247244578" Properties=species:S:1:pos:R:3:dft_force:R:3 dft_energy=-8.421372096371234 volume=194.2797818967946 dft_virial="-8.207062660456228e-05 5.7385562874778695e-05 2.13312278352811e-06 5.7385562874778695e-05 -7.5893682757222e-05 -1.833324934243066e-05 2.13312278352811e-06 -1.833324934243066e-05 -0.00012090720519003036" id=2267 pbc="T T T"
Si       0.09386226      -0.02612486       0.12239497       0.03757919      -0.06605368      -0.00983462
Si       3.20508900       2.87303408       2.87303555      -0.03757903       0.06605367       0.00983462
2
Lattice="5.948018197210231 0.06679953193691017 -0.05105352128429467 -0.10509050437962603 5.799559347544461 0.10339345473066709 -0.18429841268783767 0.15137454589797772 5.972513394155467" Properties=species:S:1:pos:R:3:dft_force:R:3 dft_energy=-8.421710979325995 volume=205.92093694659627 dft_virial="5.6061182747292536e-05 1.800739428706513e-05 1.4650038267376115e-05 1.8007394287065124e-05 0.00012783422632999005 -3.320193980596362e-07 1.4650038267376115e-05 -3.3201939805963627e-07 8.878182682699136e-05" id=2273 pbc="T T T"
Si       0.09386196      -0.02612713       0.12239354       0.02975596      -0.00322888      -0.02282170
Si       3.20509365       2.87303075       2.87303852      -0.02975597       0.00322890       0.02282171
2
Lattice="5.797612570588132 -0.22476551814662757 -0.06659827610463753 -0.28424013147378585 5.759580112679265 -0.03191707740244308 -0.263358884563806 0.08119571121870549 5.91275796752619" Properties=species:S:1:pos:R:3:dft_force:R:3 dft_energy=-8.419678117047853 volume=196.97361774202048 dft_virial="5.1179079945460454e-05 -0.00010305611141930763 3.5516807489906954e-05 -0.00010305611141930763 -0.00013768347006372578 -1.239573742222844e-05 3.5516807489906954e-05 -1.239573742222844e-05 -0.0002736326391697857" id=2259 pbc="T T T"
Si       0.09386629      -0.02612924       0.12239276       0.06636311       0.05182634      -0.01885790
Si       3.20508984       2.87303122       2.87303682      -0.06636318      -0.05182635       0.01885790
2
Lattice="5.825884441885218 -0.18347235670698 0.00034880564808342465 -0.1083952763236328 5.828770148163827 0.05946580720341751 -0.03744348696760492 -0.15631464903571315 5.83031821180512" Properties=species:S:1:pos:R:3:dft_force:R:3 dft_energy=-8.421152060234133 volume=197.92313133915118 dft_virial="7.34820233179441e-06 -5.5676594482503e-05 2.863927297035489e-05 -5.567659448250295e-05 -4.156263341118922e-05 3.065749540649284e-05 2.8639272970354875e-05 3.0657495406492855e-05 -7.517462639434366e-05" id=2245 pbc="T T T"
Si       0.09386249      -0.02612624       0.12239703       0.04667679       0.03533282      -0.03062908
Si       3.20509048       2.87303419       2.87303566      -0.04667686      -0.03533282       0.03062908
2
Lattice="6.07859628820944 0.13327079954871163 0.014411580549711018 -0.01312654788770425 6.00653224385098 0.0431759333721347 -0.04669483018332284 0.24677897556691564 5.8109828175568685" Properties=species:S:1:pos:R:3:dft_force:R:3 dft_energy=-8.42146356491977 volume=212.11557291214172 dft_virial="0.00012905593862681968 2.407015054357005e-05 5.292872752335475e-06 2.4070150543570057e-05 0.00019597939936574375 -4.0851564917123015e-05 5.292872752335475e-06 -4.0851564917123e-05 0.00020410717298431253" id=2260 pbc="T T T"
Si       0.09386684      -0.02612597       0.12239295       0.01688816      -0.02290245      -0.00452318
Si       3.20508959       2.87302930       2.87303767      -0.01688816       0.02290244       0.00452321
2
Lattice="5.69918422007183 -0.008674239754518457 -0.14651243175740555 0.11360691420821574 5.94468895331291 0.12037134004940364 0.045717029194657734 -0.22993136796721078 5.9069220586163365" Properties=species:S:1:pos:R:3:dft_force:R:3 dft_energy=-8.423068532031035 volume=200.33295139438525 dft_virial="0.00010373933308947057 -9.902658242297116e-06 -2.709872149731296e-06 -9.902658242297121e-06 -1.1119799177972056e-05 -1.837259986456211e-05 -2.709872149731296e-06 -1.8372599864562103e-05 8.897009137965347e-06" id=2239 pbc="T T T"
Si       0.09386708      -0.02612592       0.12239484       0.01407560       0.00142410      -0.02649145
Si       3.20508995       2.87302975       2.87303300      -0.01407563      -0.00142409       0.02649147
2
Lattice="5.879672000029359 0.0075389300933657874 -0.01522900048217914 0.1980268761407577 5.946547650134569 0.12188829879868573 0.0515290519662955 0.1033299788301409 5.709658386165532" Properties=species:S:1:pos:R:3:dft_force:R:3 dft_energy=-8.423109576767953 volume=199.552892170993 dft_virial="1.1301936818191138e-05 6.0086820712902356e-05 -1.0367026954816599e-06 6.0086820712902356e-05 6.40155506760144e-06 1.9369921643384607e-05 -1.0367026954816597e-06 1.9369921643384603e-05 6.839195491174862e-05" id=2275 pbc="T T T"
Si       0.09386215      -0.02612792       0.12239372       0.01116319      -0.01794943      -0.01146978
Si       3.20509110       2.87303009       2.87303474      -0.01116322       0.01794942       0.01146980
2
Lattice="5.935553147952452 -0.004474758079546346 0.1788856890463333 0.1371891655653844 5.648330990859484 0.01537297871561438 0.10462007595816167 -0.0007828946361712103 5.851661647930662" Properties=species:S:1:pos:R:3:dft_force:R:3 dft_energy=-8.422409308146035 volume=196.08055438348845 dft_virial="-9.399010216751802e-05 2.6661164578257846e-05 5.383341304672872e-05 2.6661164578257846e-05 -2.2851434980835424e-05 1.2115875206790174e-05 5.383341304672872e-05 1.2115875206790174e-05 -1.4423291427222534e-05" id=2240 pbc="T T T"
Si       0.09386442      -0.02613009       0.12239662       0.01660579       0.00842510      -0.04363069
Si       3.20509093       2.87303194       2.87303606      -0.01660579      -0.00842511       0.04363065
2
Lattice="5.737307895060733 0.042347099493873844 -0.01103745565693046 0.2282011158302422 5.530948895183059 0.06705986060783863 -0.028662175330865167 -0.10495314018762697 5.962807968649263" Properties=species:S:1:pos:R:3:dft_force:R:3 dft_energy=-8.42127560331787 volume=189.19752556868585 dft_virial="-0.0002136602331325717 3.6304626312108116e-05 2.3389107445833446e-05 3.6304626312108143e-05 -0.00011292364003008673 1.8382825335538514e-05 2.3389107445833456e-05 1.8382825335538507e-05 -0.00020168400701343027" id=2235 pbc="T T T"
Si       0.09386612      -0.02612611       0.12239282       0.02197558       0.01422022      -0.06612297
Si       3.20508861       2.87303315       2.87303755      -0.02197558      -0.01422024       0.06612298
2
Lattice="5.584702702818615 -0.019687299047179998 -0.017915945367000786 -0.07770807047761867 5.694584910143409 0.1659949978762436 -0.0348778813972455 -0.16257013383701685 5.736448995639829" Properties=species:S:1:pos:R:3:dft_force:R:3 dft_energy=-8.417507718807258 volume=182.57204594861395 dft_virial="-0.00024655676835721394 -8.45709998006399e-05 4.494275888715089e-05 -8.457099980063993e-05 -0.00048655710888371664 3.575119384624619e-05 4.494275888715089e-05 3.5751193846246174e-05 -0.0004026094377415811" id=2268 pbc="T T T"
Si       0.09386321      -0.02612820       0.12239828       0.07853356       0.04806620      -0.05418013
Si       3.20508814       2.87303281       2.87303714      -0.07853344      -0.04806620       0.05418016
2
Lattice="5.849259862718045 0.33129419859340004 -0.15322303819856414 -0.10127442923807924 5.740746384025318 -0.08833643822309015 -0.015995567884633584 -0.039970164179797055 5.802857486549771" Properties=species:S:1:pos:R:3:dft_force:R:3 dft_energy=-8.421841816484564 volume=195.01465340994804 dft_virial="-7.703348304281497e-05 1.4219064736803295e-05 6.530886224264235e-06 1.4219064736803289e-05 -1.880885648680443e-05 1.6655165543937054e-05 6.530886224264235e-06 1.665516554393706e-05 -9.827390156359164e-05" id=2271 pbc="T T T"
Si       0.09386659      -0.02612660       0.12239522       0.04525850      -0.02639969      -0.00087027
Si       3.20508946       2.87303139       2.87303531      -0.04525858       0.02639970       0.00087021
2
Lattice="5.856641492008798 0.13528466178246404 -0.13231624219137939 -0.08858626001676567 5.675404945868907 0.007440116314309106 0.025451322775252274 -0.02238369256262477 5.8966238449220985" Properties=species:S:1:pos:R:3:dft_force:R:3 dft_energy=-8.42283401290701 volume=196.08729044734613 dft_virial="-5.586394507339628e-05 6.115066938794316e-06 8.06332322103151e-06 6.115066938794313e-06 1.5997889909880462e-05 -7.391321861205871e-06 8.06332322103151e-06 -7.391321861205874e-06 -5.010465591882793e-05" id=2263 pbc="T T T"
Si       0.09386358      -0.02612510       0.12239569       0.03436637      -0.00060197      -0.02112423
Si       3.20508791       2.87303001       2.87303661      -0.03436642       0.00060203       0.02112423
2
Lattice="5.8182378729917925 0.2088982437685948 0.1064974432739324 -0.023274018128980955 5.789089603409891 -0.034066111745890006 -0.04850743658480263 -0.09025696688354731 5.81044515267989" Properties=species:S:1:pos:R:3:dft_force:R:3 dft_energy=-8.421494562663755 volume=195.74999430246376 dft_virial="-2.973594046483853e-05 1.1728915129190278e-05 3.0697734469740616e-05 1.1728915129190275e-05 -4.9303694565473196e-05 -2.0835789046549676e-05 3.06977344697406e-05 -2.083578904654967e-05 -7.967882577879341e-05" id=2269 pbc="T T T"
Si       0.09386689      -0.02612970       0.12239431       0.04299395      -0.02295345      -0.03786368
Si       3.20509176       2.87303398       2.87303389      -0.04299402       0.02295352       0.03786370
2
Lattice="5.746501091403595 -0.1491386219473205 0.0951193077912544 0.08603994855013868 5.684399021770019 -0.06583686765450332 -0.014427114098455441 0.04419013048596011 6.020773163234376" Properties=species:S:1:pos:R:3:dft_force:R:3 dft_energy=-8.421567812719733 volume=196.77299193027366 dft_virial="-5.2314107625447035e-05 -1.985363241334467e-05 6.862159206288147e-05 -1.985363241334467e-05 -2.1205297576885223e-05 3.3805886539399576e-05 6.862159206288145e-05 3.380588653939956e-05 -7.6730415311568e-05" id=2265 pbc="T T T"
Si       0.09386364      -0.02612501       0.12239696       0.03497091       0.01386475      -0.06329249
Si       3.20509095       2.87303198       2.87303858      -0.03497097      -0.01386475       0.06329252
2
Lattice="5.846620255472646 0.12240691523632803 0.06198382946995885 0.02397004205520312 5.879530157186445 -0.23241393897165416 -0.20681283650376406 0.011325582199152152 5.898790283643153" Properties=species:S:1:pos:R:3:dft_force:R:3 dft_energy=-8.421856761782516 volume=202.85251062363875 dft_virial="9.192675397864071e-05 -5.5153286464648357e-08 4.600727266703074e-05 -5.515328646464885e-08 5.194304771143144e-05 -2.8975822073202906e-06 4.600727266703074e-05 -2.8975822073202894e-06 2.1537575539261883e-05" id=2257 pbc="T T T"
Si       0.09386289      -0.02612911       0.12239342       0.03123784      -0.02184973      -0.01601165
Si       3.20509346       2.87303476       2.87303672      -0.03123791       0.02184977       0.01601165
2
Lattice="5.895957357415205 0.06060975291295971 0.24922647325448594 0.04937272328000753 5.937087681154693 -0.00454851409019049 -0.038208467000114675 -0.06362324247211669 5.919875110748539" Properties=species:S:1:pos:R:3:dft_force:R:3 dft_energy=-8.420959892299244 volume=207.26048043724995 dft_virial="0.00012093540896220124 7.250074307562286e-06 1.3962606998051282e-05 7.25007430756229e-06 3.1322728991209855e-05 -1.3296715246904765e-05 1.3962606998051289e-05 -1.3296715246904765e-05 0.00016229574498129352" id=2262 pbc="T T T"
Si       0.09386357      -0.02612945       0.12239675       0.03065967      -0.01801330      -0.03808074
Si       3.20508934       2.87303274       2.87303606      -0.03065967       0.01801331       0.03808070
2
Lattice="5.813588617601899 -0.1409054442702897 -0.17870047698885877 -0.047628997395770346 5.691485834888068 0.05805081807582022 0.04287110165097132 0.10639161861095335 5.827339833357359" Properties=species:S:1:pos:R:3:dft_force:R:3 dft_energy=-8.422230284389654 volume=192.78391543248483 dft_virial="-0.00011936940945528817 -4.8541709489156304e-05 3.2677911194654844e-05 -4.854170948915633e-05 -3.747005635460371e-05 3.024229781411975e-05 3.267791119465486e-05 3.024229781411975e-05 -0.0001340289633414074" id=2238 pbc="T T T"
Si       0.09386332      -0.02612518       0.12239805       0.03819062       0.01940644      -0.01668633
Si       3.20508883       2.87303206       2.87303364      -0.03819067      -0.01940646       0.01668630
2
Lattice="5.850547389818537 0.0495506220973798 -0.03356100685003878 0.13427343153865431 5.899274525962588 -0.046908463721711785 0.2307788534423217 -0.042769925714258854 5.6244595925079865" Properties=species:S:1:pos:R:3:dft_force:R:3 dft_energy=-8.423294396077086 volume=194.11870305079626 dft_virial="-9.335283550748046e-05 4.191036297491734e-05 6.643883893505389e-05 4.191036297491734e-05 -7.085324124927606e-05 -4.159574670759603e-05 6.643883893505389e-05 -4.159574670759603e-05 2.6353690915972302e-05" id=2250 pbc="T T T"
Si       0.09386377      -0.02612665       0.12239662       0.00382685      -0.01092741      -0.00322728
Si       3.20509224       2.87303478       2.87303444      -0.00382692       0.01092744       0.00322723
2
Lattice="5.86765016713685 -0.23981784813341545 0.14971045307263225 -0.2920483853344333 5.833150949060457 -0.13738303256850976 -0.1328047174973339 -0.12352039856074126 5.57270974494129" Properties=species:S:1:pos:R:3:dft_force:R:3 dft_energy=-8.41747524061948 volume=190.36364451150607 dft_virial="-0.00014667653201336909 -0.00017153922775554165 -2.0208982546795804e-05 -0.00017153922775554168 -0.0002907884977244739 -3.59932875714784e-05 -2.0208982546795807e-05 -3.59932875714784e-05 -0.0002826196469883106" id=2264 pbc="T T T"
Si       0.09386264      -0.02612554       0.12239335       0.09869409       0.08329252       0.00515894
Si       3.20509008       2.87303206       2.87303497      -0.09869409      -0.08329249      -0.00515872
2
Lattice="6.060112801395431 -0.07709147174041453 0.21520100951753665 -0.1046096257726925 5.895552313517652 0.13927704837143842 0.07024327434012195 -0.0002148807576311963 5.914019756556864" Properties=species:S:1:pos:R:3:dft_force:R:3 dft_energy=-8.420790735857722 volume=211.1570135589744 dft_virial="8.552856543130636e-05 -3.237628692959222e-05 6.6210642762288645e-06 -3.237628692959223e-05 0.00011435527751952654 -2.9486312983307147e-05 6.621064276228865e-06 -2.948631298330714e-05 0.0002330617588989667" id=2253 pbc="T T T"
Si       0.09386321      -0.02612465       0.12239505       0.02948906       0.00986932      -0.03056625
Si       3.20509080       2.87303234       2.87303468      -0.02948905      -0.00986929       0.03056624
2
Lattice="6.039801533679161 -0.009927014791577864 -0.05512153471277657 -0.02184852212413075 5.668524207384749 -0.325747209910741 -0.03892027013947747 0.0998159953068768 5.743513132044382" Properties=species:S:1:pos:R:3:dft_force:R:3 dft_energy=-8.423198473323197 volume=196.82225808951668 dft_virial="-3.9539134735784957e-05 -2.0552846161751704e-06 1.137156721558294e-05 -2.0552846161751695e-06 3.39928788050635e-05 -4.303631883936242e-05 1.1371567215582934e-05 -4.303631883936241e-05 3.385108211689363e-06" id=2237 pbc="T T T"
Si       0.09386721      -0.02612888       0.12239849       0.02552202       0.00412356       0.01206610
Si       3.20508978       2.87302986       2.87303638      -0.02552203      -0.00412352      -0.01206608
2
Lattice="5.891809956592226 0.12452204789309916 -0.31265416686722636 -0.03137901568297839 5.812984661132468 0.03349129485330134 0.053914131999969424 0.1747966240688231 5.705408127549591" Properties=species:S:1:pos:R:3:dft_force:R:3 dft_energy=-8.422136529755297 volume=195.49225586548624 dft_virial="-0.00010956994068707483 5.584713576532144e-05 -5.3132407954092795e-05 5.584713576532148e-05 -4.229509830312448e-05 5.4803373916828886e-05 -5.31324079540928e-05 5.480337391682886e-05 4.349421064266784e-07" id=2270 pbc="T T T"
Si       0.09386702      -0.02612828       0.12239499       0.03273878      -0.02997276       0.01654900
Si       3.20509137       2.87303037       2.87303720      -0.03273881       0.02997275      -0.01654897
2
Lattice="5.67925295738196 -0.22838220828476508 0.07342733057928764 -0.15285340776858736 5.856843862779484 -0.12927261150053465 0.22024141931796723 -0.008634801170297517 5.8782290996469015" Properties=species:S:1:pos:R:3:dft_force:R:3 dft_energy=-8.421472099775446 volume=195.2249240146056 dft_virial="-3.6359139935222115e-06 -6.12310632525432e-05 5.081499262904275e-05 -6.123106325254321e-05 -0.00012458636508970534 3.0348106169386374e-05 5.081499262904276e-05 3.0348106169386374e-05 -0.00011923419794801711" id=2272 pbc="T T T"
Si       0.09386383      -0.02612554       0.12239794       0.03752384       0.03133452      -0.04032173
Si       3.20509156       2.87303298       2.87303674      -0.03752393      -0.03133453       0.04032174
2
Lattice="5.856756727507878 0.08904425404032996 0.24325149939912172 0.03571646626230943 5.624061521699834 -0.0547951412165312 -0.20015196765420562 -0.06560197469721234 5.732677347959473" Properties=species:S:1:pos:R:3:dft_force:R:3 dft_energy=-8.42066798825138 volume=189.0622260022972 dft_virial="-0.00022926680100433295 1.619267501401748e-06 7.167207581104563e-05 1.6192675014017478e-06 -0.00015717785300937685 -2.5623943597364082e-05 7.167207581104563e-05 -2.5623943597364082e-05 -0.00018817573976128712" id=2274 pbc="T T T"
Si       0.09386442      -0.02612877       0.12239709       0.06136527       0.00035869      -0.04657159
Si       3.20508940       2.87303117       2.87303532      -0.06136531      -0.00035870       0.04657161
2
Lattice="5.846142589400125 0.07229627280191539 0.04849889502271933 -0.01869069528357486 5.8088591811325365 0.09120415430899348 0.14524580502785264 0.10380959132057092 5.943955323836808" Properties=species:S:1:pos:R:3:dft_force:R:3 dft_energy=-8.421734717279946 volume=201.76589555261467 dft_virial="3.618339539586357e-05 3.3189498834956476e-06 3.5120199383389826e-05 3.3189498834956463e-06 3.6884786763569835e-05 -1.5428845911714663e-05 3.512019938338981e-05 -1.5428845911714663e-05 4.363675269760049e-05" id=2277 pbc="T T T"
Si       0.09386307      -0.02612596       0.12239851       0.02485546      -0.00441184      -0.04239219
Si       3.20508940       2.87303049       2.87303570      -0.02485546       0.00441188       0.04239218
2
Lattice="5.99905875497331 -0.016767067472273304 0.05672768853514099 0.11009546291795862 5.879024145222054 -0.057051663181946835 -0.10995484839702521 0.037016767911403174 5.806620101339251" Properties=species:S:1:pos:R:3:dft_force:R:3 dft_energy=-8.422553468716405 volume=204.85161158251427 dft_virial="6.374500203405169e-05 1.4162430272035143e-05 2.0622896919857877e-05 1.4162430272035143e-05 0.00011367318757176817 -4.35804579645785e-06 2.0622896919857877e-05 -4.35804579645785e-06 0.00017618207681854885" id=2236 pbc="T T T"
Si       0.09386258      -0.02612934       0.12239724       0.01325283      -0.00674746      -0.01159074
Si       3.20509055       2.87302947       2.87303296      -0.01325283       0.00674751       0.01159076
2
Lattice="5.9890203597239475 0.08723559716645064 0.13271028788288636 -0.12875221872033518 5.676503065719928 0.03899542454745383 0.034537900770164075 -0.11541555218483382 6.100969417203029" Properties=species:S:1:pos:R:3:dft_force:R:3 dft_energy=-8.420967070736689 volume=207.48433131608974 dft_virial="4.531134664310201e-05 -1.491907754843186e-05 5.992214869116651e-05 -1.4919077548431864e-05 0.00011397183291404182 1.2447228746749684e-05 5.992214869116655e-05 1.244722874674969e-05 0.0001071629969851482" id=2230 pbc="T T T"
Si       0.09386202      -0.02612900       0.12239754       0.03781365       0.00301111      -0.05808839
Si       3.20509246       2.87303100       2.87303676      -0.03781362      -0.00301112       0.05808851
2
Lattice="5.881108116295031 0.08119028770472782 0.1858193398619815 0.045715328441145564 5.537476859594272 -0.09270410552315395 -0.10311343511352004 0.13848468620738286 5.872460332706257" Properties=species:S:1:pos:R:3:dft_force:R:3 dft_energy=-8.421734286416513 volume=191.40723897535807 dft_virial="-0.00018223570325554223 -7.415398523882234e-06 6.816882850430213e-05 -7.415398523882237e-06 -8.661708473523391e-05 2.001228637063053e-05 6.816882850430215e-05 2.001228637063053e-05 -0.00012670663038667594" id=2258 pbc="T T T"
Si       0.09386657      -0.02612601       0.12239303       0.04969743      -0.00020893      -0.05483907
Si       3.20509293       2.87303255       2.87303759      -0.04969747       0.00020886       0.05483908
2
Lattice="5.9144427339553385 0.2085288212084917 0.013557178676983968 -0.09298418183208473 5.8435230510461675 -0.09263722811560343 0.006808815507855373 0.0569513565192517 5.887082013006503" Properties=species:S:1:pos:R:3:dft_force:R:3 dft_energy=-8.421814660089831 volume=203.60912615598454 dft_virial="3.823165545473198e-05 2.633643199425501e-06 2.683030785765545e-05 2.633643199425501e-06 0.00011144953627952264 -2.3780499709315993e-05 2.683030785765546e-05 -2.3780499709315996e-05 8.61721765416985e-05" id=2256 pbc="T T T"
Si       0.09386279      -0.02612630       0.12239643       0.02797341      -0.02086157      -0.02028350
Si       3.20508798       2.87303105       2.87303625      -0.02797341       0.02086154       0.02028349
2
Lattice="5.865708152290356 -0.07081648496550469 0.08506683408226264 -0.0018432010674374836 5.879470744197087 -0.16885974709213128 0.03979481649269302 -0.27334079589930427 5.949250827766802" Properties=species:S:1:pos:R:3:dft_force:R:3 dft_energy=-8.422030438129926 volume=204.88245672533947 dft_virial="7.652469015990197e-05 8.48551433564832e-06 1.3310668407513858e-06 8.485514335648324e-06 9.664017062409964e-05 -1.341145936668588e-05 1.3310668407513865e-06 -1.3411459366685877e-05 8.276861484951531e-05" id=2278 pbc="T T T"
Si       0.09386563      -0.02612605       0.12239282       0.02291935       0.00379603      -0.01755215
Si       3.20509089       2.87303192       2.87303614      -0.02291935      -0.00379604       0.01755216
2
Lattice="5.910323263284483 -0.016937294001579593 -0.18477751495221403 0.017981254301867852 5.732663760828635 -0.05867132854610234 0.07092529539576063 0.03989710736781902 5.896515317950761" Properties=species:S:1:pos:R:3:dft_force:R:3 dft_energy=-8.423047992776079 volume=199.8758162431422 dft_virial="2.9215012078448912e-05 -3.167067352321906e-06 -1.6085818509640422e-05 -3.167067352321905e-06 0.00011273134326389409 4.695689278774464e-06 -1.6085818509640416e-05 4.695689278774464e-06 2.1760227591110673e-05" id=2231 pbc="T T T"
Si       0.09386328      -0.02612754       0.12239527       0.01337820       0.00165664      -0.00735289
Si       3.20508829       2.87303068       2.87303769      -0.01337821      -0.00165661       0.00735286
2
Lattice="5.8813459194305535 0.19660221161540234 0.019428519951673745 -0.008109532896696537 5.874398870456681 -0.14663042625662723 -0.0015577012445290223 0.03240485350973149 5.790149135053445" Properties=species:S:1:pos:R:3:dft_force:R:3 dft_energy=-8.422143721713663 volume=200.08340994764666 dft_virial="1.3125520052085297e-05 3.455383827661616e-05 8.30933985568738e-06 3.4553838276616185e-05 1.94333780879014e-05 -3.5075961422842557e-06 8.309339855687383e-06 -3.5075961422842544e-06 6.0398778283345594e-05" id=2255 pbc="T T T"
Si       0.09386321      -0.02612535       0.12239578       0.02990358      -0.02697140      -0.01451623
Si       3.20508999       2.87303328       2.87303725      -0.02990360       0.02697138       0.01451618
2
Lattice="5.809922265461206 0.2386125619138679 0.15935973481567386 0.022344405156493802 5.8467569015687175 -0.043784538567831675 -0.05598485609281185 0.07054895643804142 5.845403347437432" Properties=species:S:1:pos:R:3:dft_force:R:3 dft_energy=-8.42091358963375 volume=198.60347374211972 dft_virial="-9.378973977177824e-06 5.1353792617818975e-05 6.037060911035735e-05 5.135379261781899e-05 -3.05088913065583e-05 -4.800837006626247e-05 6.0370609110357374e-05 -4.8008370066262483e-05 -4.153023384744159e-05" id=2234 pbc="T T T"
Si       0.09386636      -0.02612904       0.12239527       0.04383202      -0.03965902      -0.04300730
Si       3.20508791       2.87303130       2.87303444      -0.04383209       0.03965901       0.04300730
2
Lattice="5.711346043875651 -0.07476548344265765 0.11880866882516686 -0.07347888230796744 5.740964458420099 0.14204041378073992 0.08169200999081595 0.08026373608856256 5.879907214240092" Properties=species:S:1:pos:R:3:dft_force:R:3 dft_energy=-8.419494014667546 volume=192.639425315812 dft_virial="-0.00013935553095858477 -7.760422960407605e-05 0.00011262905186424675 -7.760422960407605e-05 -0.00019196064511339315 3.474122351551734e-05 0.00011262905186424675 3.474122351551734e-05 -0.00014399475382867547" id=2246 pbc="T T T"
Si       0.09386746      -0.02612930       0.12239664       0.05684616       0.02840310      -0.08117397
Si       3.20509252       2.87303066       2.87303759      -0.05684628      -0.02840308       0.08117392
2
Lattice="5.890399861855292 -0.14988451574597153 -0.03428709631890374 -0.09357135753352844 6.000973066434818 0.00870523126296232 0.10308705453682027 -0.17051628101297825 5.896087899695893" Properties=species:S:1:pos:R:3:dft_force:R:3 dft_energy=-8.421876314522445 volume=208.36226778987464 dft_virial="0.00016516953484062028 -1.705720180038242e-05 1.595629738694147e-05 -1.705720180038242e-05 0.00011785200169300379 1.843035610575777e-05 1.5956297386941476e-05 1.8430356105757778e-05 0.00014680282721560143" id=2254 pbc="T T T"
Si       0.09386682      -0.02612898       0.12239561       0.01521538       0.00843024      -0.01646126
Si       3.20509025       2.87303398       2.87303589      -0.01521539      -0.00843024       0.01646129
2
Lattice="5.997724759507415 0.18167182565543655 0.025974984781647323 -0.02071973201810804 5.778029300964113 0.06276967207888448 0.08352164282467864 -0.0283072658673992 5.530485515440039" Properties=species:S:1:pos:R:3:dft_force:R:3 dft_energy=-8.423329497144561 volume=191.67904531361842 dft_virial="-9.520083712250658e-05 3.3333550335719976e-05 9.469675701770897e-06 3.3333550335719976e-05 -0.00016405798612272515 3.920176806152286e-06 9.4696757017709e-06 3.9201768061522865e-06 -6.386991670125231e-06" id=2247 pbc="T T T"
Si       0.09386364      -0.02612535       0.12239750       0.02307443      -0.01518565      -0.00651191
Si       3.20508991       2.87302981       2.87303408      -0.02307442       0.01518571       0.00651203
2
Lattice="5.5883719084457555 0.03795632084330586 -0.03794770369217757 0.14868988758176685 5.767009986677979 0.04968020061774539 0.07997982363559879 0.12414455620244393 5.847391150347926" Properties=species:S:1:pos:R:3:dft_force:R:3 dft_energy=-8.42145401869099 volume=188.4003576504585 dft_virial="-0.0001159453410051115 5.439334995939777e-05 3.065530031235134e-05 5.439334995939777e-05 -0.00024058653479560265 3.2209456038092315e-05 3.065530031235134e-05 3.2209456038092315e-05 -0.00020747706920056611" id=2251 pbc="T T T"
Si       0.09386341      -0.02612860       0.12239641       0.03335842      -0.01414880      -0.04036487
Si       3.20509122       2.87303457       2.87303408      -0.03335833       0.01414888       0.04036489
