2
Lattice="5.58 0.0 0.0 0.0 5.58 0.0 0.0 0.0 5.58" Properties=species:S:1:pos:R:3:dft_force:R:3 dft_energy=-8.417228539258653 volume=173.74111200000002 dft_virial="_JSON [[-0.0004884775287139476, 0.0, 0.0], [0.0, -0.0004884775287139477, -1.3552527156068805e-20], [0.0, -1.3552527156068805e-20, -0.0006117004890481074]]" scaling="_JSON [0.93, 0.93, 0.93]" pbc="T T T"
Si       0.00000000       0.00000000       0.00000000       0.00000000       0.00000000      -0.00000000
Si       2.79000000       2.79000000       2.79000000      -0.00000000       0.00000000      -0.00000000
2
Lattice="5.58734693877551 0.0 0.0 0.0 5.58734693877551 0.0 0.0 0.0 5.58734693877551" Properties=species:S:1:pos:R:3:dft_force:R:3 dft_energy=-8.41761588175047 volume=174.4282876535457 dft_virial="_JSON [[-0.0004671011576264871, 0.0, -1.3552527156068805e-20], [0.0, -0.0004671011576264872, -1.3552527156068805e-20], [0.0, -2.710505431213761e-20, -0.0005891197797371059]]" scaling="_JSON [0.9312244897959183, 0.9312244897959183, 0.9312244897959183]" pbc="T T T"
Si       0.00000000       0.00000000       0.00000000      -0.00000000       0.00000000       0.00000000
Si       2.79367347       2.79367347       2.79367347       0.00000000      -0.00000000      -0.00000000
2
Lattice="5.59469387755102 0.0 0.0 0.0 5.59469387755102 0.0 0.0 0.0 5.59469387755102" Properties=species:S:1:pos:R:3:dft_force:R:3 dft_energy=-8.417982359030157 volume=175.11727285352185 dft_virial="_JSON [[-0.00044586355431082815, 0.0, 0.0], [0.0, -0.00044586355431082793, 2.710505431213761e-20], [0.0, 0.0, -0.0005664626983239229]]" scaling="_JSON [0.9324489795918367, 0.9324489795918367, 0.9324489795918367]" pbc="T T T"
Si       0.00000000       0.00000000       0.00000000      -0.00000000      -0.00000000      -0.00000000
Si       2.79734694       2.79734694       2.79734694       0.00000000       0.00000000      -0.00000000
2
Lattice="5.6020408163265305 0.0 0.0 0.0 5.6020408163265305 0.0 0.0 0.0 5.6020408163265305" Properties=species:S:1:pos:R:3:dft_force:R:3 dft_energy=-8.418331805540824 volume=175.80806997934533 dft_virial="_JSON [[-0.0004253017005309037, 0.0, 1.3552527156068805e-20], [0.0, -0.0004253017005309037, -9.486769009248164e-20], [1.3552527156068805e-20, -9.486769009248164e-20, -0.0005445288405305204]]" scaling="_JSON [0.9336734693877551, 0.9336734693877551, 0.9336734693877551]" pbc="T T T"
Si       0.00000000       0.00000000       0.00000000       0.00000000      -0.00000000      -0.00000000
Si       2.80102041       2.80102041       2.80102041      -0.00000000       0.00000000       0.00000000
2
Lattice="5.609387755102041 0.0 0.0 0.0 5.609387755102041 0.0 0.0 0.0 5.609387755102041" Properties=species:S:1:pos:R:3:dft_force:R:3 dft_energy=-8.418662548319984 volume=176.50068141043275 dft_virial="_JSON [[-0.0004048665889914209, 0.0, 0.0], [0.0, -0.0004048665889914209, 1.3552527156068805e-20], [0.0, 1.3552527156068805e-20, -0.0005225094813315638]]" scaling="_JSON [0.9348979591836735, 0.9348979591836735, 0.9348979591836735]" pbc="T T T"
Si       0.00000000       0.00000000       0.00000000       0.00000000       0.00000000       0.00000000
Si       2.80469388       2.80469388       2.80469388      -0.00000000      -0.00000000       0.00000000
2
Lattice="5.616734693877551 0.0 0.0 0.0 5.616734693877551 0.0 0.0 0.0 5.616734693877551" Properties=species:S:1:pos:R:3:dft_force:R:3 dft_energy=-8.418997005330473 volume=177.1951095262008 dft_virial="_JSON [[-0.0003848679304004446, 0.0, 0.0], [0.0, -0.0003848679304004444, -1.3552527156068805e-20], [0.0, 1.3552527156068805e-20, -0.0005012638517632151]]" scaling="_JSON [0.9361224489795918, 0.9361224489795918, 0.9361224489795918]" pbc="T T T"
Si       0.00000000       0.00000000       0.00000000      -0.00000000       0.00000000       0.00000000
Si       2.80836735       2.80836735       2.80836735       0.00000000      -0.00000000       0.00000000
2
Lattice="5.624081632653061 0.0 0.0 0.0 5.624081632653061 0.0 0.0 0.0 5.624081632653061" Properties=species:S:1:pos:R:3:dft_force:R:3 dft_energy=-8.419310662613604 volume=177.89135670606632 dft_virial="_JSON [[-0.00036496945754949496, 0.0, 0.0], [0.0, -0.0003649694575494949, -1.3552527156068805e-20], [0.0, -1.3552527156068805e-20, -0.0004801562953844412]]" scaling="_JSON [0.9373469387755102, 0.9373469387755102, 0.9373469387755102]" pbc="T T T"
Si       0.00000000       0.00000000       0.00000000      -0.00000000      -0.00000000      -0.00000000
Si       2.81204082       2.81204082       2.81204082       0.00000000       0.00000000      -0.00000000
2
Lattice="5.631428571428572 0.0 0.0 0.0 5.631428571428572 0.0 0.0 0.0 5.631428571428572" Properties=species:S:1:pos:R:3:dft_force:R:3 dft_energy=-8.41961559805117 volume=178.5894253294461 dft_virial="_JSON [[-0.00034560342796035535, 0.0, 0.0], [0.0, -0.0003456034279603553, -1.3552527156068805e-20], [0.0, 1.3552527156068805e-20, -0.0004594584362947654]]" scaling="_JSON [0.9385714285714286, 0.9385714285714286, 0.9385714285714286]" pbc="T T T"
Si       0.00000000       0.00000000       0.00000000      -0.00000000       0.00000000       0.00000000
Si       2.81571429       2.81571429       2.81571429       0.00000000       0.00000000       0.00000000
2
Lattice="5.638775510204082 0.0 0.0 0.0 5.638775510204082 0.0 0.0 0.0 5.638775510204082" Properties=species:S:1:pos:R:3:dft_force:R:3 dft_energy=-8.41990613653258 volume=179.28931777575679 dft_virial="_JSON [[-0.0003265487730494113, 0.0, 0.0], [0.0, -0.0003265487730494114, 2.710505431213761e-20], [0.0, 2.710505431213761e-20, -0.00043909830852298387]]" scaling="_JSON [0.939795918367347, 0.939795918367347, 0.939795918367347]" pbc="T T T"
Si       0.00000000       0.00000000       0.00000000      -0.00000000      -0.00000000      -0.00000000
Si       2.81938776       2.81938776       2.81938776       0.00000000      -0.00000000      -0.00000000
2
Lattice="5.646122448979591 0.0 0.0 0.0 5.646122448979591 0.0 0.0 0.0 5.646122448979591" Properties=species:S:1:pos:R:3:dft_force:R:3 dft_energy=-8.42017131506278 volume=179.99103642441494 dft_virial="_JSON [[-0.00030762365717242925, 0.0, 0.0], [0.0, -0.00030762365717242925, -1.3552527156068805e-20], [0.0, 1.3552527156068805e-20, -0.000419120251169329]]" scaling="_JSON [0.9410204081632653, 0.9410204081632653, 0.9410204081632653]" pbc="T T T"
Si       0.00000000       0.00000000       0.00000000      -0.00000000      -0.00000000       0.00000000
Si       2.82306122       2.82306122       2.82306122       0.00000000      -0.00000000       0.00000000
2
Lattice="5.653469387755102 0.0 0.0 0.0 5.653469387755102 0.0 0.0 0.0 5.653469387755102" Properties=species:S:1:pos:R:3:dft_force:R:3 dft_energy=-8.420430456823777 volume=180.6945836548377 dft_virial="_JSON [[-0.00028924963425409374, 0.0, -1.3552527156068805e-20], [0.0, -0.00028924963425409363, 9.486769009248164e-20], [-1.3552527156068805e-20, 9.486769009248164e-20, -0.0003995638733146045]]" scaling="_JSON [0.9422448979591836, 0.9422448979591836, 0.9422448979591836]" pbc="T T T"
Si       0.00000000       0.00000000       0.00000000      -0.00000000       0.00000000       0.00000000
Si       2.82673469       2.82673469       2.82673469       0.00000000      -0.00000000       0.00000000
2
Lattice="5.660816326530612 0.0 0.0 0.0 5.660816326530612 0.0 0.0 0.0 5.660816326530612" Properties=species:S:1:pos:R:3:dft_force:R:3 dft_energy=-8.420666862912231 volume=181.3999618464415 dft_virial="_JSON [[-0.000270864000399275, 0.0, 0.0], [0.0, -0.0002708640003992748, 2.710505431213761e-20], [0.0, 2.710505431213761e-20, -0.0003800072750536174]]" scaling="_JSON [0.943469387755102, 0.943469387755102, 0.943469387755102]" pbc="T T T"
Si       0.00000000       0.00000000       0.00000000      -0.00000000      -0.00000000      -0.00000000
Si       2.83040816       2.83040816       2.83040816       0.00000000       0.00000000       0.00000000
2
Lattice="5.668163265306123 0.0 0.0 0.0 5.668163265306123 0.0 0.0 0.0 5.668163265306123" Properties=species:S:1:pos:R:3:dft_force:R:3 dft_energy=-8.420900041317822 volume=182.1071733786433 dft_virial="_JSON [[-0.00025334295944201123, 0.0, 0.0], [0.0, -0.00025334295944201123, 1.3552527156068805e-20], [0.0, 0.0, -0.0003605931528588522]]" scaling="_JSON [0.9446938775510204, 0.9446938775510204, 0.9446938775510204]" pbc="T T T"
Si       0.00000000       0.00000000       0.00000000      -0.00000000       0.00000000       0.00000000
Si       2.83408163       2.83408163       2.83408163       0.00000000      -0.00000000       0.00000000
2
Lattice="5.6755102040816325 0.0 0.0 0.0 5.6755102040816325 0.0 0.0 0.0 5.6755102040816325" Properties=species:S:1:pos:R:3:dft_force:R:3 dft_energy=-8.421120464783316 volume=182.8162206308596 dft_virial="_JSON [[-0.00023579597995831953, 0.0, 1.3552527156068805e-20], [0.0, -0.00023579597995831937, 1.3552527156068805e-20], [1.3552527156068805e-20, 1.3552527156068805e-20, -0.00034174187164681506]]" scaling="_JSON [0.9459183673469388, 0.9459183673469388, 0.9459183673469388]" pbc="T T T"
Si       0.00000000       0.00000000       0.00000000      -0.00000000      -0.00000000      -0.00000000
Si       2.83775510       2.83775510       2.83775510       0.00000000       0.00000000       0.00000000
2
Lattice="5.682857142857143 0.0 0.0 0.0 5.682857142857143 0.0 0.0 0.0 5.682857142857143" Properties=species:S:1:pos:R:3:dft_force:R:3 dft_energy=-8.421324949640919 volume=183.52710598250732 dft_virial="_JSON [[-0.0002184928663087881, 0.0, 0.0], [0.0, -0.00021849286630878822, -1.3552527156068805e-20], [0.0, -1.3552527156068805e-20, -0.00032317548547372733]]" scaling="_JSON [0.9471428571428572, 0.9471428571428572, 0.9471428571428572]" pbc="T T T"
Si       0.00000000       0.00000000       0.00000000       0.00000000      -0.00000000       0.00000000
Si       2.84142857       2.84142857       2.84142857      -0.00000000       0.00000000       0.00000000
2
Lattice="5.690204081632653 0.0 0.0 0.0 5.690204081632653 0.0 0.0 0.0 5.690204081632653" Properties=species:S:1:pos:R:3:dft_force:R:3 dft_energy=-8.421529197006071 volume=184.2398318130031 dft_virial="_JSON [[-0.00020184520294118895, 0.0, 0.0], [0.0, -0.00020184520294118879, 2.710505431213761e-20], [0.0, 2.710505431213761e-20, -0.0003051155844855005]]" scaling="_JSON [0.9483673469387756, 0.9483673469387756, 0.9483673469387756]" pbc="T T T"
Si       0.00000000       0.00000000       0.00000000      -0.00000000      -0.00000000       0.00000000
Si       2.84510204       2.84510204       2.84510204       0.00000000      -0.00000000       0.00000000
2
Lattice="5.697551020408163 0.0 0.0 0.0 5.697551020408163 0.0 0.0 0.0 5.697551020408163" Properties=species:S:1:pos:R:3:dft_force:R:3 dft_energy=-8.42171766343733 volume=184.9544005017637 dft_virial="_JSON [[-0.0001851939526402154, 0.0, -1.3552527156068805e-20], [0.0, -0.00018519395264021557, -1.3552527156068805e-20], [0.0, 0.0, -0.00028700317772192304]]" scaling="_JSON [0.9495918367346938, 0.9495918367346938, 0.9495918367346938]" pbc="T T T"
Si       0.00000000       0.00000000       0.00000000       0.00000000       0.00000000       0.00000000
Si       2.84877551       2.84877551       2.84877551      -0.00000000      -0.00000000       0.00000000
2
Lattice="5.704897959183674 0.0 0.0 0.0 5.704897959183674 0.0 0.0 0.0 5.704897959183674" Properties=species:S:1:pos:R:3:dft_force:R:3 dft_energy=-8.421896906468543 volume=185.67081442820594 dft_virial="_JSON [[-0.000168907076594643, 0.0, 0.0], [0.0, -0.000168907076594643, -1.3552527156068805e-20], [0.0, -1.3552527156068805e-20, -0.0002694724520815072]]" scaling="_JSON [0.9508163265306122, 0.9508163265306122, 0.9508163265306122]" pbc="T T T"
Si       0.00000000       0.00000000       0.00000000      -0.00000000      -0.00000000      -0.00000000
Si       2.85244898       2.85244898       2.85244898       0.00000000      -0.00000000      -0.00000000
2
Lattice="5.7122448979591836 0.0 0.0 0.0 5.7122448979591836 0.0 0.0 0.0 5.7122448979591836" Properties=species:S:1:pos:R:3:dft_force:R:3 dft_energy=-8.42206247468253 volume=186.38907597174645 dft_virial="_JSON [[-0.00015291793410312973, 0.0, 0.0], [0.0, -0.00015291793410312973, 1.3552527156068805e-20], [0.0, 1.3552527156068805e-20, -0.00025216000820525437]]" scaling="_JSON [0.9520408163265306, 0.9520408163265306, 0.9520408163265306]" pbc="T T T"
Si       0.00000000       0.00000000       0.00000000      -0.00000000      -0.00000000       0.00000000
Si       2.85612245       2.85612245       2.85612245       0.00000000       0.00000000       0.00000000
2
Lattice="5.719591836734693 0.0 0.0 0.0 5.719591836734693 0.0 0.0 0.0 5.719591836734693" Properties=species:S:1:pos:R:3:dft_force:R:3 dft_energy=-8.422209642953256 volume=187.109187511802 dft_virial="_JSON [[-0.00013718710469119884, 0.0, 0.0], [0.0, -0.00013718710469119884, 1.3552527156068805e-20], [0.0, 1.3552527156068805e-20, -0.00023520976719483314]]" scaling="_JSON [0.953265306122449, 0.953265306122449, 0.953265306122449]" pbc="T T T"
Si       0.00000000       0.00000000       0.00000000       0.00000000      -0.00000000      -0.00000000
Si       2.85979592       2.85979592       2.85979592       0.00000000       0.00000000       0.00000000
2
Lattice="5.726938775510204 0.0 0.0 0.0 5.726938775510204 0.0 0.0 0.0 5.726938775510204" Properties=species:S:1:pos:R:3:dft_force:R:3 dft_energy=-8.422349017927926 volume=187.83115142778945 dft_virial="_JSON [[-0.00012173716024426698, 0.0, 0.0], [0.0, -0.00012173716024426709, 1.3552527156068805e-20], [0.0, -1.3552527156068805e-20, -0.00021850149411754835]]" scaling="_JSON [0.9544897959183674, 0.9544897959183674, 0.9544897959183674]" pbc="T T T"
Si       0.00000000       0.00000000       0.00000000       0.00000000      -0.00000000      -0.00000000
Si       2.86346939       2.86346939       2.86346939      -0.00000000       0.00000000      -0.00000000
2
Lattice="5.734285714285715 0.0 0.0 0.0 5.734285714285715 0.0 0.0 0.0 5.734285714285715" Properties=species:S:1:pos:R:3:dft_force:R:3 dft_energy=-8.422481243958185 volume=188.55497009912543 dft_virial="_JSON [[-0.000106537758665163, 0.0, 0.0], [0.0, -0.00010653775866516289, 1.3552527156068805e-20], [0.0, 1.3552527156068805e-20, -0.00020241781044146558]]" scaling="_JSON [0.9557142857142857, 0.9557142857142857, 0.9557142857142857]" pbc="T T T"
Si       0.00000000       0.00000000       0.00000000       0.00000000       0.00000000      -0.00000000
Si       2.86714286       2.86714286       2.86714286      -0.00000000       0.00000000      -0.00000000
2
Lattice="5.741632653061225 0.0 0.0 0.0 5.741632653061225 0.0 0.0 0.0 5.741632653061225" Properties=species:S:1:pos:R:3:dft_force:R:3 dft_energy=-8.422591919183697 volume=189.2806459052266 dft_virial="_JSON [[-9.14180865364326e-05, 0.0, 0.0], [0.0, -9.141808653643255e-05, -1.3552527156068805e-20], [0.0, -1.3552527156068805e-20, -0.0001858814322364029]]" scaling="_JSON [0.9569387755102041, 0.9569387755102041, 0.9569387755102041]" pbc="T T T"
Si       0.00000000       0.00000000       0.00000000       0.00000000       0.00000000      -0.00000000
Si       2.87081633       2.87081633       2.87081633      -0.00000000       0.00000000       0.00000000
2
Lattice="5.748979591836735 0.0 0.0 0.0 5.748979591836735 0.0 0.0 0.0 5.748979591836735" Properties=species:S:1:pos:R:3:dft_force:R:3 dft_energy=-8.422693795720225 volume=190.00818122550976 dft_virial="_JSON [[-7.652045990630537e-05, 0.0, 1.3552527156068805e-20], [0.0, -7.652045990630537e-05, 1.3552527156068805e-20], [1.3552527156068805e-20, 1.3552527156068805e-20, -0.00016991247702443076]]" scaling="_JSON [0.9581632653061225, 0.9581632653061225, 0.9581632653061225]" pbc="T T T"
Si       0.00000000       0.00000000       0.00000000       0.00000000      -0.00000000      -0.00000000
Si       2.87448980       2.87448980       2.87448980      -0.00000000      -0.00000000       0.00000000
2
Lattice="5.756326530612244 0.0 0.0 0.0 5.756326530612244 0.0 0.0 0.0 5.756326530612244" Properties=species:S:1:pos:R:3:dft_force:R:3 dft_energy=-8.42279219467887 volume=190.73757843939168 dft_virial="_JSON [[-6.202927203327302e-05, 0.0, 0.0], [0.0, -6.202927203327298e-05, 2.710505431213761e-20], [0.0, 2.710505431213761e-20, -0.00015434526827826347]]" scaling="_JSON [0.9593877551020408, 0.9593877551020408, 0.9593877551020408]" pbc="T T T"
Si       0.00000000       0.00000000       0.00000000      -0.00000000       0.00000000      -0.00000000
Si       2.87816327       2.87816327       2.87816327       0.00000000      -0.00000000       0.00000000
2
Lattice="5.763673469387755 0.0 0.0 0.0 5.763673469387755 0.0 0.0 0.0 5.763673469387755" Properties=species:S:1:pos:R:3:dft_force:R:3 dft_energy=-8.42287499953809 volume=191.46883992628923 dft_virial="_JSON [[-4.798622282800179e-05, 0.0, 0.0], [0.0, -4.798622282800179e-05, 0.0], [1.3552527156068805e-20, 1.3552527156068805e-20, -0.00013899568548814776]]" scaling="_JSON [0.9606122448979592, 0.9606122448979592, 0.9606122448979592]" pbc="T T T"
Si       0.00000000       0.00000000       0.00000000      -0.00000000       0.00000000       0.00000000
Si       2.88183673       2.88183673       2.88183673       0.00000000      -0.00000000       0.00000000
2
Lattice="5.771020408163265 0.0 0.0 0.0 5.771020408163265 0.0 0.0 0.0 5.771020408163265" Properties=species:S:1:pos:R:3:dft_force:R:3 dft_energy=-8.422947742148036 volume=192.2019680656189 dft_virial="_JSON [[-3.413578874852637e-05, 0.0, 0.0], [0.0, -3.413578874852637e-05, 1.3552527156068805e-20], [0.0, 1.3552527156068805e-20, -0.00012377614666426453]]" scaling="_JSON [0.9618367346938775, 0.9618367346938775, 0.9618367346938775]" pbc="T T T"
Si       0.00000000       0.00000000       0.00000000      -0.00000000      -0.00000000      -0.00000000
Si       2.88551020       2.88551020       2.88551020       0.00000000       0.00000000      -0.00000000
2
Lattice="5.778367346938776 0.0 0.0 0.0 5.778367346938776 0.0 0.0 0.0 5.778367346938776" Properties=species:S:1:pos:R:3:dft_force:R:3 dft_energy=-8.423003589347294 volume=192.93696523679762 dft_virial="_JSON [[-2.0241185088698543e-05, 0.0, 0.0], [0.0, -2.0241185088698543e-05, 0.0], [0.0, 1.3552527156068805e-20, -0.0001086662249104802]]" scaling="_JSON [0.9630612244897959, 0.9630612244897959, 0.9630612244897959]" pbc="T T T"
Si       0.00000000       0.00000000       0.00000000       0.00000000       0.00000000       0.00000000
Si       2.88918367       2.88918367       2.88918367      -0.00000000      -0.00000000       0.00000000
2
Lattice="5.785714285714286 0.0 0.0 0.0 5.785714285714286 0.0 0.0 0.0 5.785714285714286" Properties=species:S:1:pos:R:3:dft_force:R:3 dft_energy=-8.423055667132854 volume=193.67383381924196 dft_virial="_JSON [[-6.9643080852850765e-06, 0.0, 1.3552527156068805e-20], [0.0, -6.9643080852850765e-06, 1.3552527156068805e-20], [1.3552527156068805e-20, 1.3552527156068805e-20, -9.37906022120428e-05]]" scaling="_JSON [0.9642857142857143, 0.9642857142857143, 0.9642857142857143]" pbc="T T T"
Si       0.00000000       0.00000000       0.00000000       0.00000000      -0.00000000       0.00000000
Si       2.89285714       2.89285714       2.89285714      -0.00000000      -0.00000000       0.00000000
2
Lattice="5.793061224489796 0.0 0.0 0.0 5.793061224489796 0.0 0.0 0.0 5.793061224489796" Properties=species:S:1:pos:R:3:dft_force:R:3 dft_energy=-8.423089330848514 volume=194.41257619236887 dft_virial="_JSON [[6.276238693697558e-06, 0.0, 0.0], [0.0, 6.276238693697558e-06, 0.0], [0.0, 0.0, -7.911622921359635e-05]]" scaling="_JSON [0.9655102040816327, 0.9655102040816327, 0.9655102040816327]" pbc="T T T"
Si       0.00000000       0.00000000       0.00000000       0.00000000       0.00000000      -0.00000000
Si       2.89653061       2.89653061       2.89653061      -0.00000000       0.00000000      -0.00000000
2
Lattice="5.800408163265306 0.0 0.0 0.0 5.800408163265306 0.0 0.0 0.0 5.800408163265306" Properties=species:S:1:pos:R:3:dft_force:R:3 dft_energy=-8.42312178441167 volume=195.1531947355949 dft_virial="_JSON [[1.904852849538962e-05, 0.0, 1.3552527156068805e-20], [0.0, 1.904852849538962e-05, 1.3552527156068805e-20], [1.3552527156068805e-20, 1.3552527156068805e-20, -6.504978593540307e-05]]" scaling="_JSON [0.9667346938775511, 0.9667346938775511, 0.9667346938775511]" pbc="T T T"
Si       0.00000000       0.00000000       0.00000000      -0.00000000       0.00000000      -0.00000000
Si       2.90020408       2.90020408       2.90020408       0.00000000      -0.00000000      -0.00000000
2
Lattice="5.807755102040816 0.0 0.0 0.0 5.807755102040816 0.0 0.0 0.0 5.807755102040816" Properties=species:S:1:pos:R:3:dft_force:R:3 dft_energy=-8.423142549731297 volume=195.8956918283368 dft_virial="_JSON [[3.185048856874247e-05, 0.0, 0.0], [0.0, 3.185048856874247e-05, 2.710505431213761e-20], [0.0, 0.0, -5.074077146372277e-05]]" scaling="_JSON [0.9679591836734693, 0.9679591836734693, 0.9679591836734693]" pbc="T T T"
Si       0.00000000       0.00000000       0.00000000       0.00000000      -0.00000000      -0.00000000
Si       2.90387755       2.90387755       2.90387755      -0.00000000       0.00000000      -0.00000000
2
Lattice="5.815102040816326 0.0 0.0 0.0 5.815102040816326 0.0 0.0 0.0 5.815102040816326" Properties=species:S:1:pos:R:3:dft_force:R:3 dft_energy=-8.423152599233337 volume=196.6400698500114 dft_virial="_JSON [[4.428878961414487e-05, 0.0, -1.3552527156068805e-20], [0.0, 4.428878961414487e-05, -1.3552527156068805e-20], [-1.3552527156068805e-20, -1.3552527156068805e-20, -3.717854930852935e-05]]" scaling="_JSON [0.9691836734693877, 0.9691836734693877, 0.9691836734693877]" pbc="T T T"
Si       0.00000000       0.00000000       0.00000000      -0.00000000      -0.00000000       0.00000000
Si       2.90755102       2.90755102       2.90755102      -0.00000000       0.00000000       0.00000000
2
Lattice="5.822448979591837 0.0 0.0 0.0 5.822448979591837 0.0 0.0 0.0 5.822448979591837" Properties=species:S:1:pos:R:3:dft_force:R:3 dft_energy=-8.42315084219117 volume=197.38633118003554 dft_virial="_JSON [[5.6560524830350824e-05, 0.0, 0.0], [0.0, 5.6560524830350824e-05, 2.710505431213761e-20], [0.0, 2.710505431213761e-20, -2.3520970329117727e-05]]" scaling="_JSON [0.9704081632653061, 0.9704081632653061, 0.9704081632653061]" pbc="T T T"
Si       0.00000000       0.00000000       0.00000000      -0.00000000       0.00000000       0.00000000
Si       2.91122449       2.91122449       2.91122449       0.00000000      -0.00000000       0.00000000
2
Lattice="5.829795918367347 0.0 0.0 0.0 5.829795918367347 0.0 0.0 0.0 5.829795918367347" Properties=species:S:1:pos:R:3:dft_force:R:3 dft_energy=-8.423141353323757 volume=198.13447819782576 dft_virial="_JSON [[6.841683424132811e-05, 0.0, 0.0], [0.0, 6.841683424132811e-05, -2.710505431213761e-20], [0.0, 0.0, -1.0069765706113664e-05]]" scaling="_JSON [0.9716326530612245, 0.9716326530612245, 0.9716326530612245]" pbc="T T T"
Si       0.00000000       0.00000000       0.00000000      -0.00000000      -0.00000000      -0.00000000
Si       2.91489796       2.91489796       2.91489796       0.00000000       0.00000000       0.00000000
2
Lattice="5.837142857142857 0.0 0.0 0.0 5.837142857142857 0.0 0.0 0.0 5.837142857142857" Properties=species:S:1:pos:R:3:dft_force:R:3 dft_energy=-8.423120960983955 volume=198.88451328279885 dft_virial="_JSON [[8.044456710520334e-05, 0.0, 0.0], [0.0, 8.04445671052033e-05, -2.710505431213761e-20], [0.0, -2.710505431213761e-20, 2.971503121047463e-06]]" scaling="_JSON [0.9728571428571429, 0.9728571428571429, 0.9728571428571429]" pbc="T T T"
Si       0.00000000       0.00000000       0.00000000      -0.00000000       0.00000000       0.00000000
Si       2.91857143       2.91857143       2.91857143       0.00000000      -0.00000000       0.00000000
2
Lattice="5.844489795918367 0.0 0.0 0.0 5.844489795918367 0.0 0.0 0.0 5.844489795918367" Properties=species:S:1:pos:R:3:dft_force:R:3 dft_energy=-8.423106025942538 volume=199.63643881437153 dft_virial="_JSON [[9.164040949028178e-05, 0.0, 0.0], [0.0, 9.164040949028171e-05, 1.3552527156068805e-20], [0.0, 1.3552527156068805e-20, 1.5661708522424787e-05]]" scaling="_JSON [0.9740816326530612, 0.9740816326530612, 0.9740816326530612]" pbc="T T T"
Si       0.00000000       0.00000000       0.00000000      -0.00000000       0.00000000       0.00000000
Si       2.92224490       2.92224490       2.92224490       0.00000000       0.00000000       0.00000000
2
Lattice="5.851836734693878 0.0 0.0 0.0 5.851836734693878 0.0 0.0 0.0 5.851836734693878" Properties=species:S:1:pos:R:3:dft_force:R:3 dft_energy=-8.423075653683725 volume=200.39025717196068 dft_virial="_JSON [[0.0001027598342187864, 0.0, 0.0], [0.0, 0.00010275983421878651, 2.710505431213761e-20], [0.0, 2.710505431213761e-20, 2.8332425789889972e-05]]" scaling="_JSON [0.9753061224489796, 0.9753061224489796, 0.9753061224489796]" pbc="T T T"
Si       0.00000000       0.00000000       0.00000000      -0.00000000       0.00000000       0.00000000
Si       2.92591837       2.92591837       2.92591837       0.00000000       0.00000000       0.00000000
2
Lattice="5.8591836734693885 0.0 0.0 0.0 5.8591836734693885 0.0 0.0 0.0 5.8591836734693885" Properties=species:S:1:pos:R:3:dft_force:R:3 dft_energy=-8.423036091712591 volume=201.14597073498294 dft_virial="_JSON [[0.00011347882390880845, 0.0, 0.0], [0.0, 0.00011347882390880834, 1.3552527156068805e-20], [0.0, -1.3552527156068805e-20, 4.105032586215627e-05]]" scaling="_JSON [0.976530612244898, 0.976530612244898, 0.976530612244898]" pbc="T T T"
Si       0.00000000       0.00000000       0.00000000       0.00000000      -0.00000000       0.00000000
Si       2.92959184       2.92959184       2.92959184       0.00000000       0.00000000       0.00000000
2
Lattice="5.8665306122448975 0.0 0.0 0.0 5.8665306122448975 0.0 0.0 0.0 5.8665306122448975" Properties=species:S:1:pos:R:3:dft_force:R:3 dft_energy=-8.422976467118236 volume=201.90358188285487 dft_virial="_JSON [[0.00012420354265951848, 0.0, 0.0], [0.0, 0.00012420354265951853, -2.710505431213761e-20], [0.0, 0.0, 5.361588768173011e-05]]" scaling="_JSON [0.9777551020408163, 0.9777551020408163, 0.9777551020408163]" pbc="T T T"
Si       0.00000000       0.00000000       0.00000000      -0.00000000      -0.00000000      -0.00000000
Si       2.93326531       2.93326531       2.93326531       0.00000000       0.00000000      -0.00000000
2
Lattice="5.873877551020408 0.0 0.0 0.0 5.873877551020408 0.0 0.0 0.0 5.873877551020408" Properties=species:S:1:pos:R:3:dft_force:R:3 dft_energy=-8.42291921408713 volume=202.6630929949936 dft_virial="_JSON [[0.0001346287950951114, 0.0, -1.3552527156068805e-20], [0.0, 0.00013462879509511152, -1.3552527156068805e-20], [-1.3552527156068805e-20, -1.3552527156068805e-20, 6.577242329653735e-05]]" scaling="_JSON [0.9789795918367347, 0.9789795918367347, 0.9789795918367347]" pbc="T T T"
Si       0.00000000       0.00000000       0.00000000      -0.00000000       0.00000000       0.00000000
Si       2.93693878       2.93693878       2.93693878      -0.00000000      -0.00000000      -0.00000000
2
Lattice="5.881224489795918 0.0 0.0 0.0 5.881224489795918 0.0 0.0 0.0 5.881224489795918" Properties=species:S:1:pos:R:3:dft_force:R:3 dft_energy=-8.422845926612096 volume=203.42450645081553 dft_virial="_JSON [[0.00014469497570605968, 0.0, 0.0], [0.0, 0.00014469497570605963, -2.710505431213761e-20], [0.0, -2.710505431213761e-20, 7.788792783625898e-05]]" scaling="_JSON [0.980204081632653, 0.980204081632653, 0.980204081632653]" pbc="T T T"
Si       0.00000000       0.00000000       0.00000000      -0.00000000      -0.00000000       0.00000000
Si       2.94061224       2.94061224       2.94061224       0.00000000       0.00000000       0.00000000
2
Lattice="5.888571428571429 0.0 0.0 0.0 5.888571428571429 0.0 0.0 0.0 5.888571428571429" Properties=species:S:1:pos:R:3:dft_force:R:3 dft_energy=-8.422763339568574 volume=204.1878246297376 dft_virial="_JSON [[0.0001545373706562333, 0.0, 0.0], [0.0, 0.0001545373706562333, 1.3552527156068805e-20], [0.0, 1.3552527156068805e-20, 8.998772491147088e-05]]" scaling="_JSON [0.9814285714285714, 0.9814285714285714, 0.9814285714285714]" pbc="T T T"
Si       0.00000000       0.00000000       0.00000000      -0.00000000      -0.00000000       0.00000000
Si       2.94428571       2.94428571       2.94428571       0.00000000      -0.00000000       0.00000000
2
Lattice="5.895918367346939 0.0 0.0 0.0 5.895918367346939 0.0 0.0 0.0 5.895918367346939" Properties=species:S:1:pos:R:3:dft_force:R:3 dft_energy=-8.422674057172943 volume=204.95304991117646 dft_virial="_JSON [[0.00016401486804008442, 0.0, 0.0], [0.0, 0.00016401486804008434, -2.710505431213761e-20], [0.0, -2.710505431213761e-20, 0.00010179487519692795]]" scaling="_JSON [0.9826530612244898, 0.9826530612244898, 0.9826530612244898]" pbc="T T T"
Si       0.00000000       0.00000000       0.00000000      -0.00000000      -0.00000000       0.00000000
Si       2.94795918       2.94795918       2.94795918       0.00000000       0.00000000      -0.00000000
2
Lattice="5.903265306122449 0.0 0.0 0.0 5.903265306122449 0.0 0.0 0.0 5.903265306122449" Properties=species:S:1:pos:R:3:dft_force:R:3 dft_energy=-8.422583967827345 volume=205.72018467454893 dft_virial="_JSON [[0.00017293581158575765, 0.0, 0.0], [0.0, 0.00017293581158575773, 0.0], [0.0, 0.0, 0.00011356068754772792]]" scaling="_JSON [0.9838775510204082, 0.9838775510204082, 0.9838775510204082]" pbc="T T T"
Si       0.00000000       0.00000000       0.00000000      -0.00000000      -0.00000000       0.00000000
Si       2.95163265       2.95163265       2.95163265       0.00000000       0.00000000      -0.00000000
2
Lattice="5.910612244897959 0.0 0.0 0.0 5.910612244897959 0.0 0.0 0.0 5.910612244897959" Properties=species:S:1:pos:R:3:dft_force:R:3 dft_energy=-8.42248332155026 volume=206.48923129927155 dft_virial="_JSON [[0.00018143233416998295, 0.0, 0.0], [0.0, 0.00018143233416998295, 0.0], [0.0, 0.0, 0.000125284254892046]]" scaling="_JSON [0.9851020408163266, 0.9851020408163266, 0.9851020408163266]" pbc="T T T"
Si       0.00000000       0.00000000       0.00000000      -0.00000000      -0.00000000      -0.00000000
Si       2.95530612       2.95530612       2.95530612       0.00000000       0.00000000      -0.00000000
2
Lattice="5.917959183673469 0.0 0.0 0.0 5.917959183673469 0.0 0.0 0.0 5.917959183673469" Properties=species:S:1:pos:R:3:dft_force:R:3 dft_energy=-8.422374038710949 volume=207.26019216476126 dft_virial="_JSON [[0.0001897171832937597, 0.0, 0.0], [0.0, 0.00018971718329375978, 1.3552527156068805e-20], [0.0, 1.3552527156068805e-20, 0.00013685469926959815]]" scaling="_JSON [0.9863265306122448, 0.9863265306122448, 0.9863265306122448]" pbc="T T T"
Si       0.00000000       0.00000000       0.00000000      -0.00000000       0.00000000      -0.00000000
Si       2.95897959       2.95897959       2.95897959       0.00000000      -0.00000000      -0.00000000
2
Lattice="5.92530612244898 0.0 0.0 0.0 5.92530612244898 0.0 0.0 0.0 5.92530612244898" Properties=species:S:1:pos:R:3:dft_force:R:3 dft_energy=-8.422249206085416 volume=208.03306965043478 dft_virial="_JSON [[0.00019778779376642807, 0.0, 0.0], [0.0, 0.00019778779376642807, 0.0], [0.0, 0.0, 0.00014839554213895605]]" scaling="_JSON [0.9875510204081632, 0.9875510204081632, 0.9875510204081632]" pbc="T T T"
Si       0.00000000       0.00000000       0.00000000      -0.00000000       0.00000000       0.00000000
Si       2.96265306       2.96265306       2.96265306       0.00000000       0.00000000       0.00000000
2
Lattice="5.93265306122449 0.0 0.0 0.0 5.93265306122449 0.0 0.0 0.0 5.93265306122449" Properties=species:S:1:pos:R:3:dft_force:R:3 dft_energy=-8.42212530483508 volume=208.80786613570874 dft_virial="_JSON [[0.00020527353937933656, 0.0, 0.0], [0.0, 0.00020527353937933654, 2.0328790734103208e-20], [0.0, 2.0328790734103208e-20, 0.00015969041698194768]]" scaling="_JSON [0.9887755102040816, 0.9887755102040816, 0.9887755102040816]" pbc="T T T"
Si       0.00000000       0.00000000       0.00000000       0.00000000      -0.00000000       0.00000000
Si       2.96632653       2.96632653       2.96632653      -0.00000000       0.00000000       0.00000000
2
Lattice="5.9399999999999995 0.0 0.0 0.0 5.9399999999999995 0.0 0.0 0.0 5.9399999999999995" Properties=species:S:1:pos:R:3:dft_force:R:3 dft_energy=-8.421985216828208 volume=209.58458399999995 dft_virial="_JSON [[0.00021272118694757713, 0.0, 0.0], [0.0, 0.00021272118694757713, -1.3552527156068805e-20], [0.0, -1.3552527156068805e-20, 0.0001707209476260263]]" scaling="_JSON [0.99, 0.99, 0.99]" pbc="T T T"
Si       0.00000000       0.00000000       0.00000000       0.00000000      -0.00000000      -0.00000000
Si       2.97000000       2.97000000       2.97000000      -0.00000000       0.00000000      -0.00000000
